%BLOCK LATTICE_CART
ang    # angstrom units
  11.041700000000    0.000000000000     0.000000000000   
  0.000000000000     12.135000000000    0.000000000000   
  0.000000000000     0.000000000000     19.650900000000  
%ENDBLOCK LATTICE_CART

%BLOCK POSITIONS_FRAC
La     0.211943333333     0.053196666667     0.060680000000   
La     0.038803333333     0.327310000000     0.167565000000   
La     0.121390000000     0.280136666667     0.310680000000   
La     0.294530000000     0.006023333333     0.417565000000   
La     0.288056666667     0.219863333333     0.060680000000   
La     0.127863333333     0.160643333333     0.167565000000   
La     0.045276666667     0.113470000000     0.310680000000   
La     0.205470000000     0.172690000000     0.417565000000   
H      0.281666666667     0.004166666667     0.116100000000   
H      0.244566666667     0.089266666667     0.194000000000   
H      0.123433333333     0.033266666667     0.115800000000   
H      0.169200000000     0.249133333333     0.112100000000   
H      0.051666666667     0.329166666667     0.366100000000   
H      0.088766666667     0.244066666667     0.444000000000   
H      0.209900000000     0.300066666667     0.365800000000   
H      0.164133333333     0.084200000000     0.362100000000   
H      0.218333333333     0.170833333333     0.116100000000   
H      0.255433333333     0.255933333333     0.194000000000   
H      0.043233333333     0.199933333333     0.115800000000   
H      0.330800000000     0.082466666667     0.112100000000   
H      0.115000000000     0.162500000000     0.366100000000   
H      0.077900000000     0.077400000000     0.444000000000   
H      0.290100000000     0.133400000000     0.365800000000   
H      0.002533333333     0.250866666667     0.362100000000   
C      0.274566666667     0.022433333333     0.131500000000   
C      0.287500000000     0.052533333333     0.181350000000   
C      0.252900000000     0.072666666667     0.177450000000   
C      0.230900000000     0.067400000000     0.148150000000   
C      0.195500000000     0.091933333333     0.138750000000   
C      0.315766666667     0.058666666667     0.211150000000   
C      0.132766666667     0.009166666667     0.115300000000   
C      0.124466666667     0.283300000000     0.130300000000   
C      0.160133333333     0.273266666667     0.113200000000   
C      0.180433333333     0.301966666667     0.098250000000   
C      0.220433333333     0.294866666667     0.079050000000   
C      0.098600000000     0.253666666667     0.146900000000   
C      0.059333333333     0.295733333333     0.245600000000   
C      0.099733333333     0.312800000000     0.234000000000   
C      0.058766666667     0.310900000000     0.381500000000   
C      0.045833333333     0.280800000000     0.431350000000   
C      0.080433333333     0.260666666667     0.427450000000   
C      0.102433333333     0.265933333333     0.398150000000   
C      0.137833333333     0.241400000000     0.388750000000   
C      0.017566666667     0.274666666667     0.461150000000   
C      0.200566666667     0.324166666667     0.365300000000   
C      0.208866666667     0.050033333333     0.380300000000   
C      0.173200000000     0.060066666667     0.363200000000   
C      0.152900000000     0.031366666667     0.348250000000   
C      0.112900000000     0.038466666667     0.329050000000   
C      0.234733333333     0.079666666667     0.396900000000   
C      0.274000000000     0.037600000000     0.495600000000   
C      0.233600000000     0.020533333333     0.484000000000   
C      0.225433333333     0.189100000000     0.131500000000   
C      0.212500000000     0.219200000000     0.181350000000   
C      0.247100000000     0.239333333333     0.177450000000   
C      0.269100000000     0.234066666667     0.148150000000   
C      0.304500000000     0.258600000000     0.138750000000   
C      0.184233333333     0.225333333333     0.211150000000   
C      0.033900000000     0.175833333333     0.115300000000   
C      0.042200000000     0.116633333333     0.130300000000   
C      0.006533333333     0.106600000000     0.113200000000   
C      0.319566666667     0.135300000000     0.098250000000   
C      0.279566666667     0.128200000000     0.079050000000   
C      0.068066666667     0.087000000000     0.146900000000   
C      0.107333333333     0.129066666667     0.245600000000   
C      0.066933333333     0.146133333333     0.234000000000   
C      0.107900000000     0.144233333333     0.381500000000   
C      0.120833333333     0.114133333333     0.431350000000   
C      0.086233333333     0.094000000000     0.427450000000   
C      0.064233333333     0.099266666667     0.398150000000   
C      0.028833333333     0.074733333333     0.388750000000   
C      0.149100000000     0.108000000000     0.461150000000   
C      0.299433333333     0.157500000000     0.365300000000   
C      0.291133333333     0.216700000000     0.380300000000   
C      0.326800000000     0.226733333333     0.363200000000   
C      0.013766666667     0.198033333333     0.348250000000   
C      0.053766666667     0.205133333333     0.329050000000   
C      0.265266666667     0.246333333333     0.396900000000   
C      0.226000000000     0.204266666667     0.495600000000   
C      0.266400000000     0.187200000000     0.484000000000   
N      0.241700000000     0.042133333333     0.124850000000   
N      0.297800000000     0.026933333333     0.158500000000   
N      0.166666666667     0.002966666667     0.098150000000   
N      0.110933333333     0.317700000000     0.131800000000   
N      0.091633333333     0.291200000000     0.374850000000   
N      0.035533333333     0.306400000000     0.408500000000   
N      0.166666666667     0.330366666667     0.348150000000   
N      0.222400000000     0.015633333333     0.381800000000   
N      0.258300000000     0.208800000000     0.124850000000   
N      0.202200000000     0.193600000000     0.158500000000   
N      0.000000000000     0.169633333333     0.098150000000   
N      0.055733333333     0.151033333333     0.131800000000   
N      0.075033333333     0.124533333333     0.374850000000   
N      0.131133333333     0.139733333333     0.408500000000   
N      0.000000000000     0.163700000000     0.348150000000   
N      0.277600000000     0.182300000000     0.381800000000   
O      0.181033333333     0.087966666667     0.109500000000   
O      0.184333333333     0.114566666667     0.160850000000   
O      0.012833333333     0.038500000000     0.213050000000   
O      0.305766666667     0.083100000000     0.231550000000   
O      0.236600000000     0.321833333333     0.064300000000   
O      0.234233333333     0.263233333333     0.081350000000   
O      0.066933333333     0.263933333333     0.161100000000   
O      0.110966666667     0.220933333333     0.144700000000   
O      0.030400000000     0.295100000000     0.224150000000   
O      0.057900000000     0.283400000000     0.275250000000   
O      0.098633333333     0.331433333333     0.206550000000   
O      0.129100000000     0.308200000000     0.252250000000   
O      0.152300000000     0.245366666667     0.359500000000   
O      0.149000000000     0.218766666667     0.410850000000   
O      0.320500000000     0.294833333333     0.463050000000   
O      0.027566666667     0.250233333333     0.481550000000   
O      0.096733333333     0.011500000000     0.314300000000   
O      0.099100000000     0.070100000000     0.331350000000   
O      0.266400000000     0.069400000000     0.411100000000   
O      0.222366666667     0.112400000000     0.394700000000   
O      0.302933333333     0.038233333333     0.474150000000   
O      0.275433333333     0.049933333333     0.025250000000   
O      0.234700000000     0.001900000000     0.456550000000   
O      0.204233333333     0.025133333333     0.002250000000   
O      0.318966666667     0.254633333333     0.109500000000   
O      0.315666666667     0.281233333333     0.160850000000   
O      0.153833333333     0.205166666667     0.213050000000   
O      0.194233333333     0.249766666667     0.231550000000   
O      0.263400000000     0.155166666667     0.064300000000   
O      0.265766666667     0.096566666667     0.081350000000   
O      0.099733333333     0.097266666667     0.161100000000   
O      0.055700000000     0.054266666667     0.144700000000   
O      0.136266666667     0.128433333333     0.224150000000   
O      0.108766666667     0.116733333333     0.275250000000   
O      0.068033333333     0.164766666667     0.206550000000   
O      0.037566666667     0.141533333333     0.252250000000   
O      0.014366666667     0.078700000000     0.359500000000   
O      0.017666666667     0.052100000000     0.410850000000   
O      0.179500000000     0.128166666667     0.463050000000   
O      0.139100000000     0.083566666667     0.481550000000   
O      0.069933333333     0.178166666667     0.314300000000   
O      0.067566666667     0.236766666667     0.331350000000   
O      0.233600000000     0.236066666667     0.411100000000   
O      0.277633333333     0.279066666667     0.394700000000   
O      0.197066666667     0.204900000000     0.474150000000   
O      0.224566666667     0.216600000000     0.025250000000   
O      0.265300000000     0.168566666667     0.456550000000   
O      0.295766666667     0.191800000000     0.002250000000   
La     0.211943333333     0.053196666667     0.560680000000   
La     0.038803333333     0.327310000000     0.667565000000   
La     0.121390000000     0.280136666667     0.810680000000   
La     0.294530000000     0.006023333333     0.917565000000   
La     0.288056666667     0.219863333333     0.560680000000   
La     0.127863333333     0.160643333333     0.667565000000   
La     0.045276666667     0.113470000000     0.810680000000   
La     0.205470000000     0.172690000000     0.917565000000   
H      0.281666666667     0.004166666667     0.616100000000   
H      0.244566666667     0.089266666667     0.694000000000   
H      0.123433333333     0.033266666667     0.615800000000   
H      0.169200000000     0.249133333333     0.612100000000   
H      0.051666666667     0.329166666667     0.866100000000   
H      0.088766666667     0.244066666667     0.944000000000   
H      0.209900000000     0.300066666667     0.865800000000   
H      0.164133333333     0.084200000000     0.862100000000   
H      0.218333333333     0.170833333333     0.616100000000   
H      0.255433333333     0.255933333333     0.694000000000   
H      0.043233333333     0.199933333333     0.615800000000   
H      0.330800000000     0.082466666667     0.612100000000   
H      0.115000000000     0.162500000000     0.866100000000   
H      0.077900000000     0.077400000000     0.944000000000   
H      0.290100000000     0.133400000000     0.865800000000   
H      0.002533333333     0.250866666667     0.862100000000   
C      0.274566666667     0.022433333333     0.631500000000   
C      0.287500000000     0.052533333333     0.681350000000   
C      0.252900000000     0.072666666667     0.677450000000   
C      0.230900000000     0.067400000000     0.648150000000   
C      0.195500000000     0.091933333333     0.638750000000   
C      0.315766666667     0.058666666667     0.711150000000   
C      0.132766666667     0.009166666667     0.615300000000   
C      0.124466666667     0.283300000000     0.630300000000   
C      0.160133333333     0.273266666667     0.613200000000   
C      0.180433333333     0.301966666667     0.598250000000   
C      0.220433333333     0.294866666667     0.579050000000   
C      0.098600000000     0.253666666667     0.646900000000   
C      0.059333333333     0.295733333333     0.745600000000   
C      0.099733333333     0.312800000000     0.734000000000   
C      0.058766666667     0.310900000000     0.881500000000   
C      0.045833333333     0.280800000000     0.931350000000   
C      0.080433333333     0.260666666667     0.927450000000   
C      0.102433333333     0.265933333333     0.898150000000   
C      0.137833333333     0.241400000000     0.888750000000   
C      0.017566666667     0.274666666667     0.961150000000   
C      0.200566666667     0.324166666667     0.865300000000   
C      0.208866666667     0.050033333333     0.880300000000   
C      0.173200000000     0.060066666667     0.863200000000   
C      0.152900000000     0.031366666667     0.848250000000   
C      0.112900000000     0.038466666667     0.829050000000   
C      0.234733333333     0.079666666667     0.896900000000   
C      0.274000000000     0.037600000000     0.995600000000   
C      0.233600000000     0.020533333333     0.984000000000   
C      0.225433333333     0.189100000000     0.631500000000   
C      0.212500000000     0.219200000000     0.681350000000   
C      0.247100000000     0.239333333333     0.677450000000   
C      0.269100000000     0.234066666667     0.648150000000   
C      0.304500000000     0.258600000000     0.638750000000   
C      0.184233333333     0.225333333333     0.711150000000   
C      0.033900000000     0.175833333333     0.615300000000   
C      0.042200000000     0.116633333333     0.630300000000   
C      0.006533333333     0.106600000000     0.613200000000   
C      0.319566666667     0.135300000000     0.598250000000   
C      0.279566666667     0.128200000000     0.579050000000   
C      0.068066666667     0.087000000000     0.646900000000   
C      0.107333333333     0.129066666667     0.745600000000   
C      0.066933333333     0.146133333333     0.734000000000   
C      0.107900000000     0.144233333333     0.881500000000   
C      0.120833333333     0.114133333333     0.931350000000   
C      0.086233333333     0.094000000000     0.927450000000   
C      0.064233333333     0.099266666667     0.898150000000   
C      0.028833333333     0.074733333333     0.888750000000   
C      0.149100000000     0.108000000000     0.961150000000   
C      0.299433333333     0.157500000000     0.865300000000   
C      0.291133333333     0.216700000000     0.880300000000   
C      0.326800000000     0.226733333333     0.863200000000   
C      0.013766666667     0.198033333333     0.848250000000   
C      0.053766666667     0.205133333333     0.829050000000   
C      0.265266666667     0.246333333333     0.896900000000   
C      0.226000000000     0.204266666667     0.995600000000   
C      0.266400000000     0.187200000000     0.984000000000   
N      0.241700000000     0.042133333333     0.624850000000   
N      0.297800000000     0.026933333333     0.658500000000   
N      0.166666666667     0.002966666667     0.598150000000   
N      0.110933333333     0.317700000000     0.631800000000   
N      0.091633333333     0.291200000000     0.874850000000   
N      0.035533333333     0.306400000000     0.908500000000   
N      0.166666666667     0.330366666667     0.848150000000   
N      0.222400000000     0.015633333333     0.881800000000   
N      0.258300000000     0.208800000000     0.624850000000   
N      0.202200000000     0.193600000000     0.658500000000   
N      0.000000000000     0.169633333333     0.598150000000   
N      0.055733333333     0.151033333333     0.631800000000   
N      0.075033333333     0.124533333333     0.874850000000   
N      0.131133333333     0.139733333333     0.908500000000   
N      0.000000000000     0.163700000000     0.848150000000   
N      0.277600000000     0.182300000000     0.881800000000   
O      0.181033333333     0.087966666667     0.609500000000   
O      0.184333333333     0.114566666667     0.660850000000   
O      0.012833333333     0.038500000000     0.713050000000   
O      0.305766666667     0.083100000000     0.731550000000   
O      0.236600000000     0.321833333333     0.564300000000   
O      0.234233333333     0.263233333333     0.581350000000   
O      0.066933333333     0.263933333333     0.661100000000   
O      0.110966666667     0.220933333333     0.644700000000   
O      0.030400000000     0.295100000000     0.724150000000   
O      0.057900000000     0.283400000000     0.775250000000   
O      0.098633333333     0.331433333333     0.706550000000   
O      0.129100000000     0.308200000000     0.752250000000   
O      0.152300000000     0.245366666667     0.859500000000   
O      0.149000000000     0.218766666667     0.910850000000   
O      0.320500000000     0.294833333333     0.963050000000   
O      0.027566666667     0.250233333333     0.981550000000   
O      0.096733333333     0.011500000000     0.814300000000   
O      0.099100000000     0.070100000000     0.831350000000   
O      0.266400000000     0.069400000000     0.911100000000   
O      0.222366666667     0.112400000000     0.894700000000   
O      0.302933333333     0.038233333333     0.974150000000   
O      0.275433333333     0.049933333333     0.525250000000   
O      0.234700000000     0.001900000000     0.956550000000   
O      0.204233333333     0.025133333333     0.502250000000   
O      0.318966666667     0.254633333333     0.609500000000   
O      0.315666666667     0.281233333333     0.660850000000   
O      0.153833333333     0.205166666667     0.713050000000   
O      0.194233333333     0.249766666667     0.731550000000   
O      0.263400000000     0.155166666667     0.564300000000   
O      0.265766666667     0.096566666667     0.581350000000   
O      0.099733333333     0.097266666667     0.661100000000   
O      0.055700000000     0.054266666667     0.644700000000   
O      0.136266666667     0.128433333333     0.724150000000   
O      0.108766666667     0.116733333333     0.775250000000   
O      0.068033333333     0.164766666667     0.706550000000   
O      0.037566666667     0.141533333333     0.752250000000   
O      0.014366666667     0.078700000000     0.859500000000   
O      0.017666666667     0.052100000000     0.910850000000   
O      0.179500000000     0.128166666667     0.963050000000   
O      0.139100000000     0.083566666667     0.981550000000   
O      0.069933333333     0.178166666667     0.814300000000   
O      0.067566666667     0.236766666667     0.831350000000   
O      0.233600000000     0.236066666667     0.911100000000   
O      0.277633333333     0.279066666667     0.894700000000   
O      0.197066666667     0.204900000000     0.974150000000   
O      0.224566666667     0.216600000000     0.525250000000   
O      0.265300000000     0.168566666667     0.956550000000   
O      0.295766666667     0.191800000000     0.502250000000   
La     0.211943333333     0.386530000000     0.060680000000   
La     0.038803333333     0.660643333333     0.167565000000   
La     0.121390000000     0.613470000000     0.310680000000   
La     0.294530000000     0.339356666667     0.417565000000   
La     0.288056666667     0.553196666667     0.060680000000   
La     0.127863333333     0.493976666667     0.167565000000   
La     0.045276666667     0.446803333333     0.310680000000   
La     0.205470000000     0.506023333333     0.417565000000   
H      0.281666666667     0.337500000000     0.116100000000   
H      0.244566666667     0.422600000000     0.194000000000   
H      0.123433333333     0.366600000000     0.115800000000   
H      0.169200000000     0.582466666667     0.112100000000   
H      0.051666666667     0.662500000000     0.366100000000   
H      0.088766666667     0.577400000000     0.444000000000   
H      0.209900000000     0.633400000000     0.365800000000   
H      0.164133333333     0.417533333333     0.362100000000   
H      0.218333333333     0.504166666667     0.116100000000   
H      0.255433333333     0.589266666667     0.194000000000   
H      0.043233333333     0.533266666667     0.115800000000   
H      0.330800000000     0.415800000000     0.112100000000   
H      0.115000000000     0.495833333333     0.366100000000   
H      0.077900000000     0.410733333333     0.444000000000   
H      0.290100000000     0.466733333333     0.365800000000   
H      0.002533333333     0.584200000000     0.362100000000   
C      0.274566666667     0.355766666667     0.131500000000   
C      0.287500000000     0.385866666667     0.181350000000   
C      0.252900000000     0.406000000000     0.177450000000   
C      0.230900000000     0.400733333333     0.148150000000   
C      0.195500000000     0.425266666667     0.138750000000   
C      0.315766666667     0.392000000000     0.211150000000   
C      0.132766666667     0.342500000000     0.115300000000   
C      0.124466666667     0.616633333333     0.130300000000   
C      0.160133333333     0.606600000000     0.113200000000   
C      0.180433333333     0.635300000000     0.098250000000   
C      0.220433333333     0.628200000000     0.079050000000   
C      0.098600000000     0.587000000000     0.146900000000   
C      0.059333333333     0.629066666667     0.245600000000   
C      0.099733333333     0.646133333333     0.234000000000   
C      0.058766666667     0.644233333333     0.381500000000   
C      0.045833333333     0.614133333333     0.431350000000   
C      0.080433333333     0.594000000000     0.427450000000   
C      0.102433333333     0.599266666667     0.398150000000   
C      0.137833333333     0.574733333333     0.388750000000   
C      0.017566666667     0.608000000000     0.461150000000   
C      0.200566666667     0.657500000000     0.365300000000   
C      0.208866666667     0.383366666667     0.380300000000   
C      0.173200000000     0.393400000000     0.363200000000   
C      0.152900000000     0.364700000000     0.348250000000   
C      0.112900000000     0.371800000000     0.329050000000   
C      0.234733333333     0.413000000000     0.396900000000   
C      0.274000000000     0.370933333333     0.495600000000   
C      0.233600000000     0.353866666667     0.484000000000   
C      0.225433333333     0.522433333333     0.131500000000   
C      0.212500000000     0.552533333333     0.181350000000   
C      0.247100000000     0.572666666667     0.177450000000   
C      0.269100000000     0.567400000000     0.148150000000   
C      0.304500000000     0.591933333333     0.138750000000   
C      0.184233333333     0.558666666667     0.211150000000   
C      0.033900000000     0.509166666667     0.115300000000   
C      0.042200000000     0.449966666667     0.130300000000   
C      0.006533333333     0.439933333333     0.113200000000   
C      0.319566666667     0.468633333333     0.098250000000   
C      0.279566666667     0.461533333333     0.079050000000   
C      0.068066666667     0.420333333333     0.146900000000   
C      0.107333333333     0.462400000000     0.245600000000   
C      0.066933333333     0.479466666667     0.234000000000   
C      0.107900000000     0.477566666667     0.381500000000   
C      0.120833333333     0.447466666667     0.431350000000   
C      0.086233333333     0.427333333333     0.427450000000   
C      0.064233333333     0.432600000000     0.398150000000   
C      0.028833333333     0.408066666667     0.388750000000   
C      0.149100000000     0.441333333333     0.461150000000   
C      0.299433333333     0.490833333333     0.365300000000   
C      0.291133333333     0.550033333333     0.380300000000   
C      0.326800000000     0.560066666667     0.363200000000   
C      0.013766666667     0.531366666667     0.348250000000   
C      0.053766666667     0.538466666667     0.329050000000   
C      0.265266666667     0.579666666667     0.396900000000   
C      0.226000000000     0.537600000000     0.495600000000   
C      0.266400000000     0.520533333333     0.484000000000   
N      0.241700000000     0.375466666667     0.124850000000   
N      0.297800000000     0.360266666667     0.158500000000   
N      0.166666666667     0.336300000000     0.098150000000   
N      0.110933333333     0.651033333333     0.131800000000   
N      0.091633333333     0.624533333333     0.374850000000   
N      0.035533333333     0.639733333333     0.408500000000   
N      0.166666666667     0.663700000000     0.348150000000   
N      0.222400000000     0.348966666667     0.381800000000   
N      0.258300000000     0.542133333333     0.124850000000   
N      0.202200000000     0.526933333333     0.158500000000   
N      0.000000000000     0.502966666667     0.098150000000   
N      0.055733333333     0.484366666667     0.131800000000   
N      0.075033333333     0.457866666667     0.374850000000   
N      0.131133333333     0.473066666667     0.408500000000   
N      0.000000000000     0.497033333333     0.348150000000   
N      0.277600000000     0.515633333333     0.381800000000   
O      0.181033333333     0.421300000000     0.109500000000   
O      0.184333333333     0.447900000000     0.160850000000   
O      0.012833333333     0.371833333333     0.213050000000   
O      0.305766666667     0.416433333333     0.231550000000   
O      0.236600000000     0.655166666667     0.064300000000   
O      0.234233333333     0.596566666667     0.081350000000   
O      0.066933333333     0.597266666667     0.161100000000   
O      0.110966666667     0.554266666667     0.144700000000   
O      0.030400000000     0.628433333333     0.224150000000   
O      0.057900000000     0.616733333333     0.275250000000   
O      0.098633333333     0.664766666667     0.206550000000   
O      0.129100000000     0.641533333333     0.252250000000   
O      0.152300000000     0.578700000000     0.359500000000   
O      0.149000000000     0.552100000000     0.410850000000   
O      0.320500000000     0.628166666667     0.463050000000   
O      0.027566666667     0.583566666667     0.481550000000   
O      0.096733333333     0.344833333333     0.314300000000   
O      0.099100000000     0.403433333333     0.331350000000   
O      0.266400000000     0.402733333333     0.411100000000   
O      0.222366666667     0.445733333333     0.394700000000   
O      0.302933333333     0.371566666667     0.474150000000   
O      0.275433333333     0.383266666667     0.025250000000   
O      0.234700000000     0.335233333333     0.456550000000   
O      0.204233333333     0.358466666667     0.002250000000   
O      0.318966666667     0.587966666667     0.109500000000   
O      0.315666666667     0.614566666667     0.160850000000   
O      0.153833333333     0.538500000000     0.213050000000   
O      0.194233333333     0.583100000000     0.231550000000   
O      0.263400000000     0.488500000000     0.064300000000   
O      0.265766666667     0.429900000000     0.081350000000   
O      0.099733333333     0.430600000000     0.161100000000   
O      0.055700000000     0.387600000000     0.144700000000   
O      0.136266666667     0.461766666667     0.224150000000   
O      0.108766666667     0.450066666667     0.275250000000   
O      0.068033333333     0.498100000000     0.206550000000   
O      0.037566666667     0.474866666667     0.252250000000   
O      0.014366666667     0.412033333333     0.359500000000   
O      0.017666666667     0.385433333333     0.410850000000   
O      0.179500000000     0.461500000000     0.463050000000   
O      0.139100000000     0.416900000000     0.481550000000   
O      0.069933333333     0.511500000000     0.314300000000   
O      0.067566666667     0.570100000000     0.331350000000   
O      0.233600000000     0.569400000000     0.411100000000   
O      0.277633333333     0.612400000000     0.394700000000   
O      0.197066666667     0.538233333333     0.474150000000   
O      0.224566666667     0.549933333333     0.025250000000   
O      0.265300000000     0.501900000000     0.456550000000   
O      0.295766666667     0.525133333333     0.002250000000   
La     0.211943333333     0.386530000000     0.560680000000   
La     0.038803333333     0.660643333333     0.667565000000   
La     0.121390000000     0.613470000000     0.810680000000   
La     0.294530000000     0.339356666667     0.917565000000   
La     0.288056666667     0.553196666667     0.560680000000   
La     0.127863333333     0.493976666667     0.667565000000   
La     0.045276666667     0.446803333333     0.810680000000   
La     0.205470000000     0.506023333333     0.917565000000   
H      0.281666666667     0.337500000000     0.616100000000   
H      0.244566666667     0.422600000000     0.694000000000   
H      0.123433333333     0.366600000000     0.615800000000   
H      0.169200000000     0.582466666667     0.612100000000   
H      0.051666666667     0.662500000000     0.866100000000   
H      0.088766666667     0.577400000000     0.944000000000   
H      0.209900000000     0.633400000000     0.865800000000   
H      0.164133333333     0.417533333333     0.862100000000   
H      0.218333333333     0.504166666667     0.616100000000   
H      0.255433333333     0.589266666667     0.694000000000   
H      0.043233333333     0.533266666667     0.615800000000   
H      0.330800000000     0.415800000000     0.612100000000   
H      0.115000000000     0.495833333333     0.866100000000   
H      0.077900000000     0.410733333333     0.944000000000   
H      0.290100000000     0.466733333333     0.865800000000   
H      0.002533333333     0.584200000000     0.862100000000   
C      0.274566666667     0.355766666667     0.631500000000   
C      0.287500000000     0.385866666667     0.681350000000   
C      0.252900000000     0.406000000000     0.677450000000   
C      0.230900000000     0.400733333333     0.648150000000   
C      0.195500000000     0.425266666667     0.638750000000   
C      0.315766666667     0.392000000000     0.711150000000   
C      0.132766666667     0.342500000000     0.615300000000   
C      0.124466666667     0.616633333333     0.630300000000   
C      0.160133333333     0.606600000000     0.613200000000   
C      0.180433333333     0.635300000000     0.598250000000   
C      0.220433333333     0.628200000000     0.579050000000   
C      0.098600000000     0.587000000000     0.646900000000   
C      0.059333333333     0.629066666667     0.745600000000   
C      0.099733333333     0.646133333333     0.734000000000   
C      0.058766666667     0.644233333333     0.881500000000   
C      0.045833333333     0.614133333333     0.931350000000   