%BLOCK LATTICE_CART
ang    # angstrom units
  26.647000000000    0.000000000000     0.000000000000   
  0.000000000000     26.647000000000    0.000000000000   
  0.000000000000     0.000000000000     26.647000000000  
%ENDBLOCK LATTICE_CART

%BLOCK POSITIONS_FRAC
O      0.242600000000     0.317000000000     0.053100000000   
O      0.242600000000     0.817000000000     0.553100000000   
O      0.742600000000     0.317000000000     0.553100000000   
O      0.742600000000     0.817000000000     0.053100000000   
O      0.757400000000     0.683000000000     0.053100000000   
O      0.757400000000     0.183000000000     0.553100000000   
O      0.257400000000     0.683000000000     0.553100000000   
O      0.257400000000     0.183000000000     0.053100000000   
O      0.757400000000     0.317000000000     0.946900000000   
O      0.757400000000     0.817000000000     0.446900000000   
O      0.257400000000     0.317000000000     0.446900000000   
O      0.257400000000     0.817000000000     0.946900000000   
O      0.242600000000     0.683000000000     0.946900000000   
O      0.242600000000     0.183000000000     0.446900000000   
O      0.742600000000     0.683000000000     0.446900000000   
O      0.742600000000     0.183000000000     0.946900000000   
O      0.053100000000     0.242600000000     0.317000000000   
O      0.053100000000     0.742600000000     0.817000000000   
O      0.553100000000     0.242600000000     0.817000000000   
O      0.553100000000     0.742600000000     0.317000000000   
O      0.053100000000     0.757400000000     0.683000000000   
O      0.053100000000     0.257400000000     0.183000000000   
O      0.553100000000     0.757400000000     0.183000000000   
O      0.553100000000     0.257400000000     0.683000000000   
O      0.946900000000     0.757400000000     0.317000000000   
O      0.946900000000     0.257400000000     0.817000000000   
O      0.446900000000     0.757400000000     0.817000000000   
O      0.446900000000     0.257400000000     0.317000000000   
O      0.946900000000     0.242600000000     0.683000000000   
O      0.946900000000     0.742600000000     0.183000000000   
O      0.446900000000     0.242600000000     0.183000000000   
O      0.446900000000     0.742600000000     0.683000000000   
O      0.317000000000     0.053100000000     0.242600000000   
O      0.317000000000     0.553100000000     0.742600000000   
O      0.817000000000     0.053100000000     0.742600000000   
O      0.817000000000     0.553100000000     0.242600000000   
O      0.683000000000     0.053100000000     0.757400000000   
O      0.683000000000     0.553100000000     0.257400000000   
O      0.183000000000     0.053100000000     0.257400000000   
O      0.183000000000     0.553100000000     0.757400000000   
O      0.317000000000     0.946900000000     0.757400000000   
O      0.317000000000     0.446900000000     0.257400000000   
O      0.817000000000     0.946900000000     0.257400000000   
O      0.817000000000     0.446900000000     0.757400000000   
O      0.683000000000     0.946900000000     0.242600000000   
O      0.683000000000     0.446900000000     0.742600000000   
O      0.183000000000     0.946900000000     0.742600000000   
O      0.183000000000     0.446900000000     0.242600000000   
O      0.317000000000     0.242600000000     0.946900000000   
O      0.317000000000     0.742600000000     0.446900000000   
O      0.817000000000     0.242600000000     0.446900000000   
O      0.817000000000     0.742600000000     0.946900000000   
O      0.683000000000     0.757400000000     0.946900000000   
O      0.683000000000     0.257400000000     0.446900000000   
O      0.183000000000     0.757400000000     0.446900000000   
O      0.183000000000     0.257400000000     0.946900000000   
O      0.317000000000     0.757400000000     0.053100000000   
O      0.317000000000     0.257400000000     0.553100000000   
O      0.817000000000     0.757400000000     0.553100000000   
O      0.817000000000     0.257400000000     0.053100000000   
O      0.683000000000     0.242600000000     0.053100000000   
O      0.683000000000     0.742600000000     0.553100000000   
O      0.183000000000     0.242600000000     0.553100000000   
O      0.183000000000     0.742600000000     0.053100000000   
O      0.242600000000     0.053100000000     0.683000000000   
O      0.242600000000     0.553100000000     0.183000000000   
O      0.742600000000     0.053100000000     0.183000000000   
O      0.742600000000     0.553100000000     0.683000000000   
O      0.757400000000     0.053100000000     0.317000000000   
O      0.757400000000     0.553100000000     0.817000000000   
O      0.257400000000     0.053100000000     0.817000000000   
O      0.257400000000     0.553100000000     0.317000000000   
O      0.757400000000     0.946900000000     0.683000000000   
O      0.757400000000     0.446900000000     0.183000000000   
O      0.257400000000     0.946900000000     0.183000000000   
O      0.257400000000     0.446900000000     0.683000000000   
O      0.242600000000     0.946900000000     0.317000000000   
O      0.242600000000     0.446900000000     0.817000000000   
O      0.742600000000     0.946900000000     0.817000000000   
O      0.742600000000     0.446900000000     0.317000000000   
O      0.053100000000     0.317000000000     0.757400000000   
O      0.053100000000     0.817000000000     0.257400000000   
O      0.553100000000     0.317000000000     0.257400000000   
O      0.553100000000     0.817000000000     0.757400000000   
O      0.053100000000     0.683000000000     0.242600000000   
O      0.053100000000     0.183000000000     0.742600000000   
O      0.553100000000     0.683000000000     0.742600000000   
O      0.553100000000     0.183000000000     0.242600000000   
O      0.946900000000     0.317000000000     0.242600000000   
O      0.946900000000     0.817000000000     0.742600000000   
O      0.446900000000     0.317000000000     0.742600000000   
O      0.446900000000     0.817000000000     0.242600000000   
O      0.946900000000     0.683000000000     0.757400000000   
O      0.946900000000     0.183000000000     0.257400000000   
O      0.446900000000     0.683000000000     0.257400000000   
O      0.446900000000     0.183000000000     0.757400000000   
O      0.757400000000     0.683000000000     0.946900000000   
O      0.757400000000     0.183000000000     0.446900000000   
O      0.257400000000     0.683000000000     0.446900000000   
O      0.257400000000     0.183000000000     0.946900000000   
O      0.242600000000     0.317000000000     0.946900000000   
O      0.242600000000     0.817000000000     0.446900000000   
O      0.742600000000     0.317000000000     0.446900000000   
O      0.742600000000     0.817000000000     0.946900000000   
O      0.242600000000     0.683000000000     0.053100000000   
O      0.242600000000     0.183000000000     0.553100000000   
O      0.742600000000     0.683000000000     0.553100000000   
O      0.742600000000     0.183000000000     0.053100000000   
O      0.757400000000     0.317000000000     0.053100000000   
O      0.757400000000     0.817000000000     0.553100000000   
O      0.257400000000     0.317000000000     0.553100000000   
O      0.257400000000     0.817000000000     0.053100000000   
O      0.946900000000     0.757400000000     0.683000000000   
O      0.946900000000     0.257400000000     0.183000000000   
O      0.446900000000     0.757400000000     0.183000000000   
O      0.446900000000     0.257400000000     0.683000000000   
O      0.946900000000     0.242600000000     0.317000000000   
O      0.946900000000     0.742600000000     0.817000000000   
O      0.446900000000     0.242600000000     0.817000000000   
O      0.446900000000     0.742600000000     0.317000000000   
O      0.053100000000     0.242600000000     0.683000000000   
O      0.053100000000     0.742600000000     0.183000000000   
O      0.553100000000     0.242600000000     0.183000000000   
O      0.553100000000     0.742600000000     0.683000000000   
O      0.053100000000     0.757400000000     0.317000000000   
O      0.053100000000     0.257400000000     0.817000000000   
O      0.553100000000     0.757400000000     0.817000000000   
O      0.553100000000     0.257400000000     0.317000000000   
O      0.683000000000     0.946900000000     0.757400000000   
O      0.683000000000     0.446900000000     0.257400000000   
O      0.183000000000     0.946900000000     0.257400000000   
O      0.183000000000     0.446900000000     0.757400000000   
O      0.317000000000     0.946900000000     0.242600000000   
O      0.317000000000     0.446900000000     0.742600000000   
O      0.817000000000     0.946900000000     0.742600000000   
O      0.817000000000     0.446900000000     0.242600000000   
O      0.683000000000     0.053100000000     0.242600000000   
O      0.683000000000     0.553100000000     0.742600000000   
O      0.183000000000     0.053100000000     0.742600000000   
O      0.183000000000     0.553100000000     0.242600000000   
O      0.317000000000     0.053100000000     0.757400000000   
O      0.317000000000     0.553100000000     0.257400000000   
O      0.817000000000     0.053100000000     0.257400000000   
O      0.817000000000     0.553100000000     0.757400000000   
O      0.683000000000     0.757400000000     0.053100000000   
O      0.683000000000     0.257400000000     0.553100000000   
O      0.183000000000     0.757400000000     0.553100000000   
O      0.183000000000     0.257400000000     0.053100000000   
O      0.317000000000     0.242600000000     0.053100000000   
O      0.317000000000     0.742600000000     0.553100000000   
O      0.817000000000     0.242600000000     0.553100000000   
O      0.817000000000     0.742600000000     0.053100000000   
O      0.683000000000     0.242600000000     0.946900000000   
O      0.683000000000     0.742600000000     0.446900000000   
O      0.183000000000     0.242600000000     0.446900000000   
O      0.183000000000     0.742600000000     0.946900000000   
O      0.317000000000     0.757400000000     0.946900000000   
O      0.317000000000     0.257400000000     0.446900000000   
O      0.817000000000     0.757400000000     0.446900000000   
O      0.817000000000     0.257400000000     0.946900000000   
O      0.757400000000     0.946900000000     0.317000000000   
O      0.757400000000     0.446900000000     0.817000000000   
O      0.257400000000     0.946900000000     0.817000000000   
O      0.257400000000     0.446900000000     0.317000000000   
O      0.242600000000     0.946900000000     0.683000000000   
O      0.242600000000     0.446900000000     0.183000000000   
O      0.742600000000     0.946900000000     0.183000000000   
O      0.742600000000     0.446900000000     0.683000000000   
O      0.242600000000     0.053100000000     0.317000000000   
O      0.242600000000     0.553100000000     0.817000000000   
O      0.742600000000     0.053100000000     0.817000000000   
O      0.742600000000     0.553100000000     0.317000000000   
O      0.757400000000     0.053100000000     0.683000000000   
O      0.757400000000     0.553100000000     0.183000000000   
O      0.257400000000     0.053100000000     0.183000000000   
O      0.257400000000     0.553100000000     0.683000000000   
O      0.946900000000     0.683000000000     0.242600000000   
O      0.946900000000     0.183000000000     0.742600000000   
O      0.446900000000     0.683000000000     0.742600000000   
O      0.446900000000     0.183000000000     0.242600000000   
O      0.946900000000     0.317000000000     0.757400000000   
O      0.946900000000     0.817000000000     0.257400000000   
O      0.446900000000     0.317000000000     0.257400000000   
O      0.446900000000     0.817000000000     0.757400000000   
O      0.053100000000     0.683000000000     0.757400000000   
O      0.053100000000     0.183000000000     0.257400000000   
O      0.553100000000     0.683000000000     0.257400000000   
O      0.553100000000     0.183000000000     0.757400000000   
O      0.053100000000     0.317000000000     0.242600000000   
O      0.053100000000     0.817000000000     0.742600000000   
O      0.553100000000     0.317000000000     0.742600000000   
O      0.553100000000     0.817000000000     0.242600000000   
Co     0.289760000000     0.289760000000     0.000000000000   
Cl     0.350400000000     0.350400000000     0.000000000000   
Co     0.289760000000     0.789760000000     0.500000000000   
Cl     0.350400000000     0.850400000000     0.500000000000   
Co     0.789760000000     0.289760000000     0.500000000000   
Cl     0.850400000000     0.350400000000     0.500000000000   
Co     0.789760000000     0.789760000000     0.000000000000   
Cl     0.850400000000     0.850400000000     0.000000000000   
Co     0.710240000000     0.710240000000     0.000000000000   
Cl     0.649600000000     0.649600000000     0.000000000000   
Co     0.710240000000     0.210240000000     0.500000000000   
Cl     0.649600000000     0.149600000000     0.500000000000   
Co     0.210240000000     0.710240000000     0.500000000000   
Cl     0.149600000000     0.649600000000     0.500000000000   
Co     0.210240000000     0.210240000000     0.000000000000   
Cl     0.149600000000     0.149600000000     0.000000000000   
Co     0.710240000000     0.289760000000     0.000000000000   
Cl     0.649600000000     0.350400000000     0.000000000000   
Co     0.710240000000     0.789760000000     0.500000000000   
Cl     0.649600000000     0.850400000000     0.500000000000   
Co     0.210240000000     0.289760000000     0.500000000000   
Cl     0.149600000000     0.350400000000     0.500000000000   
Co     0.210240000000     0.789760000000     0.000000000000   
Cl     0.149600000000     0.850400000000     0.000000000000   
Co     0.289760000000     0.710240000000     0.000000000000   
Cl     0.350400000000     0.649600000000     0.000000000000   
Co     0.289760000000     0.210240000000     0.500000000000   
Cl     0.350400000000     0.149600000000     0.500000000000   
Co     0.789760000000     0.710240000000     0.500000000000   
Cl     0.850400000000     0.649600000000     0.500000000000   
Co     0.789760000000     0.210240000000     0.000000000000   
Cl     0.850400000000     0.149600000000     0.000000000000   
Co     0.000000000000     0.289760000000     0.289760000000   
Cl     0.000000000000     0.350400000000     0.350400000000   
Co     0.000000000000     0.789760000000     0.789760000000   
Cl     0.000000000000     0.850400000000     0.850400000000   
Co     0.500000000000     0.289760000000     0.789760000000   
Cl     0.500000000000     0.350400000000     0.850400000000   
Co     0.500000000000     0.789760000000     0.289760000000   
Cl     0.500000000000     0.850400000000     0.350400000000   
Co     0.000000000000     0.710240000000     0.710240000000   
Cl     0.000000000000     0.649600000000     0.649600000000   
Co     0.000000000000     0.210240000000     0.210240000000   
Cl     0.000000000000     0.149600000000     0.149600000000   
Co     0.500000000000     0.710240000000     0.210240000000   
Cl     0.500000000000     0.649600000000     0.149600000000   
Co     0.500000000000     0.210240000000     0.710240000000   
Cl     0.500000000000     0.149600000000     0.649600000000   
Co     0.000000000000     0.710240000000     0.289760000000   
Cl     0.000000000000     0.649600000000     0.350400000000   
Co     0.000000000000     0.210240000000     0.789760000000   
Cl     0.000000000000     0.149600000000     0.850400000000   
Co     0.500000000000     0.710240000000     0.789760000000   
Cl     0.500000000000     0.649600000000     0.850400000000   
Co     0.500000000000     0.210240000000     0.289760000000   
Cl     0.500000000000     0.149600000000     0.350400000000   
Co     0.000000000000     0.289760000000     0.710240000000   
Cl     0.000000000000     0.350400000000     0.649600000000   
Co     0.000000000000     0.789760000000     0.210240000000   
Cl     0.000000000000     0.850400000000     0.149600000000   
Co     0.500000000000     0.289760000000     0.210240000000   
Cl     0.500000000000     0.350400000000     0.149600000000   
Co     0.500000000000     0.789760000000     0.710240000000   
Cl     0.500000000000     0.850400000000     0.649600000000   
Co     0.289760000000     0.000000000000     0.289760000000   
Cl     0.350400000000     0.000000000000     0.350400000000   
Co     0.289760000000     0.500000000000     0.789760000000   
Cl     0.350400000000     0.500000000000     0.850400000000   
Co     0.789760000000     0.000000000000     0.789760000000   
Cl     0.850400000000     0.000000000000     0.850400000000   
Co     0.789760000000     0.500000000000     0.289760000000   
Cl     0.850400000000     0.500000000000     0.350400000000   
Co     0.710240000000     0.000000000000     0.710240000000   
Cl     0.649600000000     0.000000000000     0.649600000000   
Co     0.710240000000     0.500000000000     0.210240000000   
Cl     0.649600000000     0.500000000000     0.149600000000   
Co     0.210240000000     0.000000000000     0.210240000000   
Cl     0.149600000000     0.000000000000     0.149600000000   
Co     0.210240000000     0.500000000000     0.710240000000   
Cl     0.149600000000     0.500000000000     0.649600000000   
Co     0.289760000000     0.000000000000     0.710240000000   
Cl     0.350400000000     0.000000000000     0.649600000000   
Co     0.289760000000     0.500000000000     0.210240000000   
Cl     0.350400000000     0.500000000000     0.149600000000   
Co     0.789760000000     0.000000000000     0.210240000000   
Cl     0.850400000000     0.000000000000     0.149600000000   
Co     0.789760000000     0.500000000000     0.710240000000   
Cl     0.850400000000     0.500000000000     0.649600000000   
Co     0.710240000000     0.000000000000     0.289760000000   
Cl     0.649600000000     0.000000000000     0.350400000000   
Co     0.710240000000     0.500000000000     0.789760000000   
Cl     0.649600000000     0.500000000000     0.850400000000   
Co     0.210240000000     0.000000000000     0.789760000000   
Cl     0.149600000000     0.000000000000     0.850400000000   
Co     0.210240000000     0.500000000000     0.289760000000   
Cl     0.149600000000     0.500000000000     0.350400000000   
C      0.202400000000     0.297600000000     0.069000000000   
C      0.177800000000     0.322200000000     0.114300000000   
C      0.202400000000     0.797600000000     0.569000000000   
C      0.177800000000     0.822200000000     0.614300000000   
C      0.797600000000     0.702400000000     0.069000000000   
C      0.822200000000     0.677800000000     0.114300000000   
C      0.797600000000     0.202400000000     0.569000000000   
C      0.822200000000     0.177800000000     0.614300000000   
C      0.297600000000     0.202400000000     0.069000000000   
C      0.322200000000     0.177800000000     0.114300000000   
C      0.797600000000     0.297600000000     0.931000000000   
C      0.822200000000     0.322200000000     0.885700000000   
C      0.797600000000     0.797600000000     0.431000000000   
C      0.822200000000     0.822200000000     0.385700000000   
C      0.297600000000     0.297600000000     0.431000000000   
C      0.322200000000     0.322200000000     0.385700000000   
C      0.202400000000     0.702400000000     0.931000000000   
C      0.177800000000     0.677800000000     0.885700000000   
C      0.202400000000     0.202400000000     0.431000000000   
C      0.177800000000     0.177800000000     0.385700000000   
C      0.069000000000     0.202400000000     0.297600000000   
C      0.114300000000     0.177800000000     0.322200000000   
C      0.569000000000     0.202400000000     0.797600000000   
C      0.614300000000     0.177800000000     0.822200000000   
C      0.069000000000     0.797600000000     0.702400000000   
C      0.114300000000     0.822200000000     0.677800000000   
C      0.069000000000     0.297600000000     0.202400000000   
C      0.114300000000     0.322200000000     0.177800000000   
C      0.569000000000     0.797600000000     0.202400000000   
C      0.614300000000     0.822200000000     0.177800000000   
C      0.931000000000     0.797600000000     0.297600000000   
C      0.885700000000     0.822200000000     0.322200000000   
C      0.431000000000     0.797600000000     0.797600000000   
C      0.385700000000     0.822200000000     0.822200000000   
C      0.431000000000     0.297600000000     0.297600000000   
C      0.385700000000     0.322200000000     0.322200000000   
C      0.931000000000     0.202400000000     0.702400000000   
C      0.885700000000     0.177800000000     0.677800000000   
C      0.431000000000     0.202400000000     0.202400000000   
C      0.385700000000     0.177800000000     0.177800000000   
C      0.297600000000     0.069000000000     0.202400000000   
C      0.322200000000     0.114300000000     0.177800000000   
C      0.297600000000     0.569000000000     0.702400000000   
C      0.322200000000     0.614300000000     0.677800000000   
C      0.702400000000     0.069000000000     0.797600000000   
C      0.677800000000     0.114300000000     0.822200000000   
C      0.702400000000     0.569000000000     0.297600000000   
C      0.677800000000     0.614300000000     0.322200000000   
C      0.202400000000     0.069000000000     0.297600000000   
C      0.177800000000     0.114300000000     0.322200000000   
C      0.297600000000     0.931000000000     0.797600000000   
C      0.322200000000     0.885700000000     0.822200000000   
C      0.297600000000     0.431000000000     0.297600000000   
C      0.322200000000     0.385700000000     0.322200000000   
C      0.702400000000     0.931000000000     0.202400000000   
C      0.677800000000     0.885700000000     0.177800000000   
C      0.702400000000     0.431000000000     0.702400000000   
C      0.677800000000     0.385700000000     0.677800000000   
C      0.202400000000     0.431000000000     0.202400000000   
C      0.177800000000     0.385700000000     0.177800000000   
C      0.297600000000     0.202400000000     0.931000000000   
C      0.322200000000     0.177800000000     0.885700000000   
C      0.297600000000     0.702400000000     0.431000000000   
C      0.322200000000     0.677800000000     0.385700000000   
C      0.702400000000     0.797600000000     0.931000000000   
C      0.677800000000     0.822200000000     0.885700000000   
C      0.702400000000     0.297600000000     0.431000000000   
C      0.677800000000     0.322200000000     0.385700000000   
C      0.202400000000     0.297600000000     0.931000000000   
C      0.177800000000     0.322200000000     0.885700000000   
C      0.297600000000     0.797600000000     0.069000000000   
C      0.322200000000     0.822200000000     0.114300000000   
C      0.297600000000     0.297600000000     0.569000000000   
C      0.322200000000     0.322200000000     0.614300000000   
C      0.702400000000     0.202400000000     0.069000000000   
C      0.677800000000     0.177800000000     0.114300000000   
C      0.702400000000     0.702400000000     0.569000000000   
C      0.677800000000     0.677800000000     0.614300000000   
C      0.202400000000     0.202400000000     0.569000000000   
C      0.177800000000     0.177800000000     0.614300000000   
C      0.202400000000     0.069000000000     0.702400000000   
C      0.177800000000     0.114300000000     0.677800000000   
C      0.202400000000     0.569000000000     0.202400000000   
C      0.177800000000     0.614300000000     0.177800000000   
C      0.797600000000     0.069000000000     0.297600000000   
C      0.822200000000     0.114300000000     0.322200000000   
C      0.797600000000     0.569000000000     0.797600000000   
C      0.822200000000     0.614300000000     0.822200000000   
C      0.297600000000     0.569000000000     0.297600000000   
C      0.322200000000     0.614300000000     0.322200000000   
C      0.797600000000     0.931000000000     0.702400000000   
C      0.822200000000     0.885700000000     0.677800000000   
C      0.797600000000     0.431000000000     0.202400000000   
C      0.822200000000     0.385700000000     0.177800000000   
C      0.297600000000     0.931000000000     0.202400000000   
C      0.322200000000     0.885700000000     0.177800000000   
C      0.202400000000     0.931000000000     0.297600000000   
C      0.177800000000     0.885700000000     0.322200000000   
C      0.202400000000     0.431000000000     0.797600000000   
C      0.177800000000     0.385700000000     0.822200000000   
C      0.069000000000     0.297600000000     0.797600000000   
C      0.114300000000     0.322200000000     0.822200000000   
C      0.569000000000     0.297600000000     0.297600000000   
C      0.614300000000     0.322200000000     0.322200000000   
C      0.069000000000     0.702400000000     0.202400000000   
C      0.114300000000     0.677800000000     0.177800000000   
C      0.569000000000     0.702400000000     0.702400000000   
C      0.614300000000     0.677800000000     0.677800000000   
C      0.569000000000     0.202400000000     0.202400000000   
C      0.614300000000     0.177800000000     0.177800000000   
C      0.931000000000     0.297600000000     0.202400000000   
C      0.885700000000     0.322200000000     0.177800000000   
C      0.431000000000     0.297600000000     0.702400000000   
C      0.385700000000     0.322200000000     0.677800000000   
C      0.931000000000     0.702400000000     0.797600000000   
C      0.885700000000     0.677800000000     0.822200000000   
C      0.931000000000     0.202400000000     0.297600000000   
C      0.885700000000     0.177800000000     0.322200000000   
C      0.431000000000     0.702400000000     0.297600000000   
C      0.385700000000     0.677800000000     0.322200000000   
C      0.797600000000     0.702400000000     0.931000000000   
C      0.822200000000     0.677800000000     0.885700000000   
C      0.797600000000     0.202400000000     0.431000000000   
C      0.822200000000     0.177800000000     0.385700000000   
C      0.202400000000     0.797600000000     0.431000000000   
C      0.177800000000     0.822200000000     0.385700000000   
C      0.202400000000     0.702400000000     0.069000000000   
C      0.177800000000     0.677800000000     0.114300000000   
C      0.797600000000     0.297600000000     0.069000000000   
C      0.822200000000     0.322200000000     0.114300000000   
C      0.797600000000     0.797600000000     0.569000000000   
C      0.822200000000     0.822200000000     0.614300000000   
C      0.931000000000     0.797600000000     0.702400000000   
C      0.885700000000     0.822200000000     0.677800000000   
C      0.431000000000     0.797600000000     0.202400000000   
C      0.385700000000     0.822200000000     0.177800000000   
C      0.431000000000     0.202400000000     0.797600000000   
C      0.385700000000     0.177800000000     0.822200000000   
C      0.069000000000     0.202400000000     0.702400000000   
C      0.114300000000     0.177800000000     0.677800000000   
C      0.069000000000     0.797600000000     0.297600000000   
C      0.114300000000     0.822200000000     0.322200000000   
C      0.569000000000     0.797600000000     0.797600000000   
C      0.614300000000     0.822200000000     0.822200000000   
C      0.702400000000     0.931000000000     0.797600000000   
C      0.677800000000     0.885700000000     0.822200000000   
C      0.702400000000     0.431000000000     0.297600000000   
C      0.677800000000     0.385700000000     0.322200000000   
C      0.297600000000     0.431000000000     0.702400000000   
C      0.322200000000     0.385700000000     0.677800000000   
C      0.702400000000     0.069000000000     0.202400000000   
C      0.677800000000     0.114300000000     0.177800000000   
C      0.702400000000     0.569000000000     0.702400000000   
C      0.677800000000     0.614300000000     0.677800000000   
C      0.297600000000     0.069000000000     0.797600000000   
C      0.322200000000     0.114300000000     0.822200000000   
C      0.702400000000     0.797600000000     0.069000000000   
C      0.677800000000     0.822200000000     0.114300000000   
C      0.702400000000     0.297600000000     0.569000000000   
C      0.677800000000     0.322200000000     0.614300000000   
C      0.297600000000     0.702400000000     0.569000000000   
C      0.322200000000     0.677800000000     0.614300000000   
C      0.702400000000     0.202400000000     0.931000000000   
C      0.677800000000     0.177800000000     0.885700000000   
C      0.702400000000     0.702400000000     0.431000000000   
C      0.677800000000     0.677800000000     0.385700000000   
C      0.297600000000     0.797600000000     0.931000000000   
C      0.322200000000     0.822200000000     0.885700000000   
C      0.797600000000     0.931000000000     0.297600000000   
C      0.822200000000     0.885700000000     0.322200000000   
C      0.797600000000     0.431000000000     0.797600000000   
C      0.822200000000     0.385700000000     0.822200000000   
C      0.202400000000     0.931000000000     0.702400000000   
C      0.177800000000     0.885700000000     0.677800000000   
C      0.202400000000     0.569000000000     0.797600000000   
C      0.177800000000     0.614300000000     0.822200000000   
C      0.797600000000     0.069000000000     0.702400000000   
C      0.822200000000     0.114300000000     0.677800000000   
C      0.797600000000     0.569000000000     0.202400000000   
C      0.822200000000     0.614300000000     0.177800000000   
C      0.931000000000     0.702400000000     0.202400000000   
C      0.885700000000     0.677800000000     0.177800000000   
C      0.431000000000     0.702400000000     0.702400000000   
C      0.385700000000     0.677800000000     0.677800000000   