%BLOCK LATTICE_CART
ang    # angstrom units
  65.158000000000    0.000000000000     0.000000000000   
 -21.719063439687    61.431540886688    0.000000000000   
 -21.719063439687   -30.715268625190    53.201564723185  
%ENDBLOCK LATTICE_CART

%BLOCK POSITIONS_FRAC
Zn     0.584410000000     0.306490000000     0.259340000000   
Zn     0.566950000000     0.351760000000     0.169310000000   
Zn     0.415590000000     0.693510000000     0.740660000000   
Zn     0.397640000000     0.830690000000     0.182450000000   
Zn     0.084410000000     0.825070000000     0.277920000000   
Zn     0.682450000000     0.284810000000     0.851760000000   
Zn     0.682450000000     0.397640000000     0.330690000000   
Zn     0.325070000000     0.584410000000     0.777920000000   
Zn     0.602360000000     0.169310000000     0.817550000000   
Zn     0.240660000000     0.825070000000     0.547150000000   
Zn     0.240660000000     0.415590000000     0.193510000000   
Zn     0.174930000000     0.952850000000     0.259340000000   
Zn     0.952850000000     0.193510000000     0.777920000000   
Zn     0.759340000000     0.584410000000     0.806490000000   
Zn     0.284810000000     0.933050000000     0.602360000000   
Zn     0.259340000000     0.806490000000     0.584410000000   
Zn     0.351760000000     0.669310000000     0.066950000000   
Zn     0.830690000000     0.682450000000     0.897640000000   
Zn     0.066950000000     0.897640000000     0.215190000000   
Zn     0.915590000000     0.174930000000     0.722080000000   
Zn     0.933050000000     0.102360000000     0.784810000000   
Zn     0.169310000000     0.317550000000     0.102360000000   
Zn     0.669310000000     0.102360000000     0.317550000000   
Zn     0.306490000000     0.547150000000     0.722080000000   
Zn     0.722080000000     0.674930000000     0.915590000000   
Zn     0.784810000000     0.182450000000     0.351760000000   
Zn     0.317550000000     0.715190000000     0.148240000000   
Zn     0.547150000000     0.222080000000     0.806490000000   
Zn     0.547150000000     0.325070000000     0.240660000000   
Zn     0.397640000000     0.566950000000     0.715190000000   
Zn     0.277920000000     0.325070000000     0.084410000000   
Zn     0.693510000000     0.452850000000     0.277920000000   
Zn     0.222080000000     0.915590000000     0.674930000000   
Zn     0.259340000000     0.452850000000     0.174930000000   
Zn     0.330690000000     0.433050000000     0.148240000000   
Zn     0.740660000000     0.547150000000     0.825070000000   
Zn     0.777920000000     0.084410000000     0.325070000000   
Zn     0.933050000000     0.830690000000     0.648240000000   
Zn     0.084410000000     0.259340000000     0.306490000000   
Zn     0.648240000000     0.330690000000     0.933050000000   
Zn     0.566950000000     0.215190000000     0.897640000000   
Zn     0.066950000000     0.169310000000     0.351760000000   
Zn     0.851760000000     0.066950000000     0.669310000000   
Zn     0.330690000000     0.897640000000     0.682450000000   
Zn     0.669310000000     0.566950000000     0.851760000000   
Zn     0.825070000000     0.777920000000     0.584410000000   
Zn     0.740660000000     0.193510000000     0.415590000000   
Zn     0.174930000000     0.222080000000     0.415590000000   
Zn     0.193510000000     0.915590000000     0.240660000000   
Zn     0.817550000000     0.669310000000     0.602360000000   
Zn     0.215190000000     0.817550000000     0.648240000000   
Zn     0.193510000000     0.277920000000     0.452850000000   
Zn     0.674930000000     0.259340000000     0.952850000000   
Zn     0.602360000000     0.433050000000     0.284810000000   
Zn     0.306490000000     0.759340000000     0.084410000000   
Zn     0.715190000000     0.066950000000     0.397640000000   
Zn     0.351760000000     0.682450000000     0.784810000000   
Zn     0.222080000000     0.306490000000     0.047150000000   
Zn     0.169310000000     0.851760000000     0.566950000000   
Zn     0.693510000000     0.240660000000     0.915590000000   
Zn     0.325070000000     0.740660000000     0.047150000000   
Zn     0.806490000000     0.722080000000     0.547150000000   
Zn     0.277920000000     0.952850000000     0.693510000000   
Zn     0.102360000000     0.817550000000     0.169310000000   
Zn     0.674930000000     0.415590000000     0.222080000000   
Zn     0.759340000000     0.174930000000     0.452850000000   
Zn     0.182450000000     0.330690000000     0.397640000000   
Zn     0.722080000000     0.047150000000     0.306490000000   
Zn     0.897640000000     0.715190000000     0.566950000000   
Zn     0.415590000000     0.722080000000     0.174930000000   
Zn     0.215190000000     0.397640000000     0.066950000000   
Zn     0.584410000000     0.277920000000     0.825070000000   
Zn     0.851760000000     0.784810000000     0.682450000000   
Zn     0.952850000000     0.759340000000     0.674930000000   
Zn     0.452850000000     0.674930000000     0.759340000000   
Zn     0.825070000000     0.047150000000     0.740660000000   
Zn     0.102360000000     0.284810000000     0.433050000000   
Zn     0.284810000000     0.351760000000     0.182450000000   
Zn     0.047150000000     0.806490000000     0.222080000000   
Zn     0.148240000000     0.215190000000     0.317550000000   
Zn     0.148240000000     0.933050000000     0.330690000000   
Zn     0.915590000000     0.740660000000     0.693510000000   
Zn     0.830690000000     0.148240000000     0.433050000000   
Zn     0.806490000000     0.084410000000     0.759340000000   
Zn     0.648240000000     0.317550000000     0.215190000000   
Zn     0.047150000000     0.240660000000     0.325070000000   
Zn     0.784810000000     0.602360000000     0.933050000000   
Zn     0.182450000000     0.851760000000     0.284810000000   
Zn     0.777920000000     0.693510000000     0.952850000000   
Zn     0.433050000000     0.784810000000     0.102360000000   
Zn     0.817550000000     0.148240000000     0.715190000000   
Zn     0.317550000000     0.602360000000     0.669310000000   
Zn     0.452850000000     0.777920000000     0.193510000000   
Zn     0.897640000000     0.182450000000     0.830690000000   
Zn     0.433050000000     0.648240000000     0.830690000000   
Zn     0.715190000000     0.648240000000     0.817550000000   
H      0.802400000000     0.674700000000     0.664500000000   
H      0.354400000000     0.795300000000     0.176900000000   
H      0.292200000000     0.507500000000     0.136500000000   
H      0.332300000000     0.026800000000     0.641500000000   
H      0.997100000000     0.202600000000     0.417900000000   
H      0.220700000000     0.741200000000     0.641500000000   
H      0.579200000000     0.358500000000     0.099700000000   
H      0.497100000000     0.417900000000     0.202600000000   
H      0.812000000000     0.872800000000     0.588600000000   
H      0.686500000000     0.417200000000     0.163500000000   
H      0.020500000000     0.741200000000     0.099700000000   
H      0.135500000000     0.303100000000     0.342200000000   
H      0.205500000000     0.784700000000     0.202600000000   
H      0.473500000000     0.371900000000     0.167600000000   
H      0.082800000000     0.813500000000     0.336500000000   
H      0.871900000000     0.973500000000     0.667600000000   
H      0.973200000000     0.858500000000     0.167700000000   
H      0.059100000000     0.854400000000     0.177500000000   
H      0.578100000000     0.304500000000     0.115200000000   
H      0.720700000000     0.641500000000     0.741200000000   
H      0.627700000000     0.302400000000     0.137900000000   
H      0.670500000000     0.107100000000     0.801800000000   
H      0.862100000000     0.664500000000     0.989800000000   
H      0.160200000000     0.329500000000     0.428500000000   
H      0.701300000000     0.246000000000     0.338700000000   
H      0.825300000000     0.697600000000     0.835500000000   
H      0.169300000000     0.901000000000     0.329500000000   
H      0.753700000000     0.230700000000     0.917200000000   
H      0.230700000000     0.417200000000     0.253700000000   
H      0.301800000000     0.631300000000     0.194700000000   
H      0.793300000000     0.657800000000     0.960900000000   
H      0.526800000000     0.832300000000     0.141500000000   
H      0.002900000000     0.797400000000     0.582100000000   
H      0.805900000000     0.601600000000     0.473500000000   
H      0.114700000000     0.805500000000     0.473200000000   
H      0.829500000000     0.198200000000     0.892900000000   
H      0.641500000000     0.241200000000     0.220700000000   
H      0.128100000000     0.026500000000     0.332400000000   
H      0.170500000000     0.339800000000     0.071500000000   
H      0.137900000000     0.335500000000     0.010200000000   
H      0.455300000000     0.092700000000     0.754000000000   
H      0.704700000000     0.145600000000     0.323100000000   
H      0.655700000000     0.284700000000     0.292200000000   
H      0.686500000000     0.269300000000     0.023000000000   
H      0.793300000000     0.135500000000     0.332400000000   
H      0.579200000000     0.582100000000     0.784700000000   
H      0.190800000000     0.805500000000     0.332300000000   
H      0.268300000000     0.428500000000     0.099000000000   
H      0.284700000000     0.792200000000     0.155700000000   
H      0.989800000000     0.164500000000     0.862100000000   
H      0.302400000000     0.664500000000     0.674700000000   
H      0.585300000000     0.245500000000     0.020200000000   
H      0.284700000000     0.492500000000     0.629000000000   
H      0.313500000000     0.582800000000     0.836500000000   
H      0.276600000000     0.560800000000     0.188000000000   
H      0.305300000000     0.698200000000     0.868700000000   
H      0.204300000000     0.871900000000     0.398400000000   
H      0.196900000000     0.832400000000     0.539100000000   
H      0.588600000000     0.215800000000     0.276600000000   
H      0.883500000000     0.069400000000     0.768900000000   
H      0.196900000000     0.364500000000     0.157800000000   
H      0.194500000000     0.026800000000     0.385300000000   
H      0.099000000000     0.170500000000     0.330700000000   
H      0.220700000000     0.479500000000     0.079200000000   
H      0.114600000000     0.231100000000     0.300500000000   
H      0.507500000000     0.871000000000     0.215300000000   
H      0.254500000000     0.339800000000     0.274700000000   
H      0.303100000000     0.842200000000     0.635500000000   
H      0.344300000000     0.629000000000     0.136500000000   
H      0.303100000000     0.460900000000     0.167600000000   
H      0.268900000000     0.883500000000     0.569400000000   
H      0.911400000000     0.723400000000     0.784200000000   
H      0.194700000000     0.131300000000     0.301800000000   
H      0.660200000000     0.428500000000     0.329500000000   
H      0.026500000000     0.832400000000     0.628100000000   
H      0.601600000000     0.628100000000     0.795700000000   
H      0.674700000000     0.510200000000     0.872300000000   
H      0.420800000000     0.002900000000     0.705500000000   
H      0.473500000000     0.101600000000     0.805900000000   
H      0.364500000000     0.706700000000     0.167600000000   
H      0.520200000000     0.934900000000     0.274700000000   
H      0.936600000000     0.107100000000     0.305300000000   
H      0.164500000000     0.802400000000     0.174700000000   
H      0.839800000000     0.670500000000     0.571500000000   
H      0.479500000000     0.579200000000     0.720700000000   
H      0.225300000000     0.479800000000     0.565100000000   
H      0.745500000000     0.085300000000     0.520200000000   
H      0.559100000000     0.381600000000     0.204700000000   
H      0.934900000000     0.774700000000     0.020200000000   
H      0.614700000000     0.473200000000     0.805500000000   
H      0.921900000000     0.884800000000     0.695500000000   
H      0.440900000000     0.618400000000     0.795300000000   
H      0.930600000000     0.199500000000     0.814100000000   
H      0.706700000000     0.667600000000     0.864500000000   
H      0.723400000000     0.439200000000     0.812000000000   
H      0.920800000000     0.020500000000     0.779300000000   
H      0.362100000000     0.372300000000     0.197600000000   
H      0.069400000000     0.268900000000     0.383500000000   
H      0.141500000000     0.220700000000     0.241200000000   
H      0.667600000000     0.303100000000     0.960900000000   
H      0.579200000000     0.220700000000     0.979500000000   
H      0.636500000000     0.344300000000     0.129000000000   
H      0.628100000000     0.295700000000     0.101600000000   
H      0.169300000000     0.268300000000     0.339800000000   
H      0.417900000000     0.715300000000     0.920800000000   
H      0.669300000000     0.339800000000     0.268300000000   
H      0.292200000000     0.784700000000     0.655700000000   
H      0.645600000000     0.440900000000     0.322500000000   
H      0.167600000000     0.206700000000     0.364500000000   
H      0.069400000000     0.800500000000     0.185900000000   
H      0.885300000000     0.690800000000     0.858500000000   
H      0.167700000000     0.358500000000     0.973200000000   
H      0.813500000000     0.977000000000     0.730700000000   
H      0.163500000000     0.917200000000     0.686500000000   
H      0.479800000000     0.414700000000     0.254500000000   
H      0.325300000000     0.835500000000     0.697600000000   
H      0.298700000000     0.754000000000     0.661300000000   
H      0.627200000000     0.688000000000     0.911400000000   
H      0.900300000000     0.758800000000     0.979500000000   
H      0.809200000000     0.194500000000     0.667700000000   
H      0.188000000000     0.060800000000     0.276600000000   
H      0.997100000000     0.794500000000     0.079200000000   
H      0.414700000000     0.660200000000     0.934900000000   
H      0.128100000000     0.101600000000     0.295700000000   
H      0.241200000000     0.520500000000     0.599700000000   
H      0.667600000000     0.194100000000     0.295700000000   
H      0.129000000000     0.284700000000     0.992500000000   
H      0.836500000000     0.753700000000     0.023000000000   
H      0.254000000000     0.455300000000     0.592700000000   
H      0.332300000000     0.305500000000     0.190800000000   
H      0.746000000000     0.201300000000     0.838700000000   
H      0.599700000000     0.020500000000     0.241200000000   
H      0.907300000000     0.746000000000     0.044700000000   
H      0.194100000000     0.398400000000     0.526500000000   
H      0.417900000000     0.702600000000     0.997100000000   
H      0.688000000000     0.276600000000     0.060800000000   
H      0.194500000000     0.167700000000     0.309200000000   
H      0.300500000000     0.569400000000     0.685900000000   
H      0.694500000000     0.385300000000     0.026800000000   
H      0.526500000000     0.628100000000     0.832400000000   
H      0.955300000000     0.754000000000     0.092700000000   
H      0.645600000000     0.204700000000     0.823100000000   
H      0.803100000000     0.167600000000     0.460900000000   
H      0.704700000000     0.559100000000     0.881600000000   
H      0.730700000000     0.253700000000     0.417200000000   
H      0.628100000000     0.332400000000     0.026500000000   
H      0.079200000000     0.979500000000     0.220700000000   
H      0.197600000000     0.325300000000     0.335500000000   
H      0.060800000000     0.776600000000     0.688000000000   
H      0.114600000000     0.883500000000     0.314100000000   
H      0.629000000000     0.992500000000     0.284700000000   
H      0.269300000000     0.746300000000     0.582800000000   
H      0.304500000000     0.689300000000     0.726400000000   
H      0.201300000000     0.338700000000     0.246000000000   
H      0.477000000000     0.163500000000     0.746300000000   
H      0.920800000000     0.215300000000     0.417900000000   
H      0.707800000000     0.215300000000     0.344300000000   
H      0.358500000000     0.758800000000     0.779300000000   
H      0.462900000000     0.578100000000     0.773600000000   
H      0.939200000000     0.223400000000     0.312000000000   
H      0.398400000000     0.371900000000     0.204300000000   
H      0.293300000000     0.332400000000     0.135500000000   
H      0.301800000000     0.670500000000     0.607100000000   
H      0.225300000000     0.745500000000     0.160200000000   
H      0.960900000000     0.157800000000     0.793300000000   
H      0.358500000000     0.599700000000     0.079200000000   
H      0.417200000000     0.663500000000     0.186500000000   
H      0.177500000000     0.354400000000     0.059100000000   
H      0.254500000000     0.914700000000     0.479800000000   
H      0.294500000000     0.497100000000     0.579200000000   
H      0.569400000000     0.185900000000     0.800500000000   
H      0.696900000000     0.157800000000     0.364500000000   
H      0.637900000000     0.010200000000     0.335500000000   
H      0.339800000000     0.565100000000     0.085300000000   
H      0.371000000000     0.007500000000     0.715300000000   
H      0.901000000000     0.829500000000     0.669300000000   
H      0.592700000000     0.955300000000     0.254000000000   
H      0.696900000000     0.539100000000     0.832400000000   
H      0.107100000000     0.301800000000     0.170500000000   
H      0.578100000000     0.273600000000     0.962900000000   
H      0.726400000000     0.537100000000     0.921900000000   
H      0.295300000000     0.440900000000     0.118400000000   
H      0.141500000000     0.920800000000     0.400300000000   
H      0.305900000000     0.832400000000     0.204300000000   
H      0.371900000000     0.704300000000     0.898400000000   
H      0.329500000000     0.928500000000     0.660200000000   
H      0.020200000000     0.745500000000     0.585300000000   
H      0.731100000000     0.614600000000     0.800500000000   
H      0.385300000000     0.858500000000     0.690800000000   
H      0.297400000000     0.502900000000     0.082100000000   
H      0.223400000000     0.812000000000     0.439200000000   
H      0.676900000000     0.322500000000     0.881600000000   
H      0.616500000000     0.231100000000     0.930600000000   
H      0.635500000000     0.342200000000     0.303100000000   
H      0.858500000000     0.667700000000     0.473200000000   
H      0.698200000000     0.329500000000     0.392900000000   
H      0.332400000000     0.805900000000     0.704300000000   
H      0.585300000000     0.339800000000     0.065100000000   
H      0.773600000000     0.078100000000     0.462900000000   
H      0.917200000000     0.730700000000     0.753700000000   
H      0.804500000000     0.078100000000     0.615200000000   
H      0.253700000000     0.336500000000     0.523000000000   
H      0.660200000000     0.225300000000     0.245500000000   
H      0.657800000000     0.460900000000     0.293300000000   
H      0.661300000000     0.407300000000     0.862600000000   
H      0.565100000000     0.585300000000     0.839800000000   
H      0.898400000000     0.694100000000     0.026500000000   
H      0.885400000000     0.116500000000     0.685900000000   
H      0.914700000000     0.934900000000     0.660200000000   
H      0.269300000000     0.523000000000     0.186500000000   
H      0.829500000000     0.631300000000     0.436600000000   
H      0.776600000000     0.588600000000     0.715800000000   
H      0.127700000000     0.137900000000     0.302400000000   
H      0.582100000000     0.284700000000     0.079200000000   
H      0.544700000000     0.637400000000     0.798700000000   
H      0.363500000000     0.655700000000     0.871000000000   
H      0.832400000000     0.039100000000     0.696900000000   
H      0.754000000000     0.592700000000     0.455300000000   
H      0.871900000000     0.898400000000     0.704300000000   
H      0.677500000000     0.059100000000     0.354400000000   
H      0.588600000000     0.372800000000     0.812000000000   
H      0.428500000000     0.599000000000     0.768300000000   
H      0.618400000000     0.295300000000     0.940900000000   
H      0.226400000000     0.304500000000     0.189300000000   
H      0.669300000000     0.329500000000     0.901000000000   
H      0.928500000000     0.768300000000     0.599000000000   
H      0.758800000000     0.479500000000     0.400300000000   
H      0.836500000000     0.082800000000     0.313500000000   
H      0.832400000000     0.793300000000     0.635500000000   
H      0.167600000000     0.295700000000     0.194100000000   
H      0.868700000000     0.670500000000     0.063400000000   
H      0.060800000000     0.284200000000     0.872800000000   
H      0.362600000000     0.701300000000     0.955300000000   
H      0.258800000000     0.400300000000     0.479500000000   
H      0.731100000000     0.116500000000     0.430600000000   
H      0.332400000000     0.526500000000     0.128100000000   
H      0.063400000000     0.170500000000     0.868700000000   
H      0.854400000000     0.176900000000     0.795300000000   
H      0.809200000000     0.614700000000     0.641500000000   
H      0.323100000000     0.677500000000     0.118400000000   
H      0.814100000000     0.114600000000     0.383500000000   
H      0.155700000000     0.292200000000     0.284700000000   
H      0.701300000000     0.455300000000     0.862600000000   
H      0.741200000000     0.599700000000     0.520500000000   
H      0.325300000000     0.489800000000     0.127700000000   
H      0.392900000000     0.563400000000     0.194700000000   
H      0.992500000000     0.784700000000     0.129000000000   
H      0.977000000000     0.230700000000     0.313500000000   
H      0.784700000000     0.702600000000     0.705500000000   
H      0.523000000000     0.686500000000     0.769300000000   
H      0.862100000000     0.197600000000     0.372300000000   
H      0.335500000000     0.825300000000     0.197600000000   
H      0.784200000000     0.223400000000     0.911400000000   
H      0.979500000000     0.258800000000     0.900300000000   
H      0.039100000000     0.842200000000     0.206700000000   
H      0.795300000000     0.118400000000     0.440900000000   
H      0.385400000000     0.685900000000     0.116500000000   
H      0.274700000000     0.434900000000     0.520200000000   
H      0.973500000000     0.167600000000     0.371900000000   
H      0.398400000000     0.026500000000     0.694100000000   
H      0.231100000000     0.430600000000     0.116500000000   
H      0.309200000000     0.641500000000     0.614700000000   
H      0.637400000000     0.338700000000     0.092700000000   
H      0.273600000000     0.462900000000     0.078100000000   
H      0.616500000000     0.385400000000     0.185900000000   
H      0.901000000000     0.071500000000     0.731700000000   
H      0.537100000000     0.115200000000     0.810700000000   
H      0.520500000000     0.420800000000     0.279300000000   
H      0.190800000000     0.385300000000     0.358500000000   
H      0.667700000000     0.973200000000     0.358500000000   
H      0.400300000000     0.979500000000     0.758800000000   
H      0.582800000000     0.336500000000     0.813500000000   
H      0.832400000000     0.128100000000     0.526500000000   
H      0.381600000000     0.704700000000     0.059100000000   
H      0.858500000000     0.779300000000     0.758800000000   
H      0.195500000000     0.273600000000     0.310700000000   
H      0.526800000000     0.694500000000     0.885300000000   
H      0.940900000000     0.795300000000     0.618400000000   
H      0.339800000000     0.571500000000     0.670500000000   
H      0.489800000000     0.862100000000     0.164500000000   
H      0.832300000000     0.190800000000     0.305500000000   
H      0.201300000000     0.862600000000     0.455300000000   
H      0.268300000000     0.839800000000     0.669300000000   
H      0.137400000000     0.044700000000     0.298700000000   
H      0.779300000000     0.520500000000     0.920800000000   
H      0.920800000000     0.900300000000     0.641500000000   
H      0.715300000000     0.420800000000     0.917900000000   
H      0.830700000000     0.099000000000     0.670500000000   
H      0.460900000000     0.667600000000     0.803100000000   
H      0.832300000000     0.641500000000     0.026800000000   
H      0.582800000000     0.246300000000     0.269300000000   
H      0.768900000000     0.569400000000     0.883500000000   
H      0.559100000000     0.177500000000     0.854400000000   
H      0.198200000000     0.805300000000     0.368700000000   
H      0.199500000000     0.314100000000     0.430600000000   
H      0.107100000000     0.805300000000     0.436600000000   
H      0.230700000000     0.813500000000     0.477000000000   
H      0.400300000000     0.420800000000     0.141500000000   
H      0.705500000000     0.202600000000     0.784700000000   
H      0.801800000000     0.607100000000     0.670500000000   
H      0.884800000000     0.689300000000     0.962900000000   
H      0.973200000000     0.114700000000     0.305500000000   
H      0.314100000000     0.930600000000     0.699500000000   
H      0.489800000000     0.627700000000     0.825300000000   
H      0.607100000000     0.170500000000     0.301800000000   
H      0.745500000000     0.660200000000     0.725300000000   
H      0.099000000000     0.928500000000     0.268300000000   
H      0.226400000000     0.921900000000     0.537100000000   
H      0.295300000000     0.854400000000     0.676900000000   
H      0.305300000000     0.607100000000     0.936600000000   
H      0.164500000000     0.362100000000     0.489800000000   
H      0.829500000000     0.169300000000     0.401000000000   
H      0.688000000000     0.411400000000     0.127200000000   
H      0.206700000000     0.864500000000     0.667600000000   
H      0.685900000000     0.069400000000     0.300500000000   
H      0.825300000000     0.127700000000     0.489800000000   
H      0.898400000000     0.204300000000     0.371900000000   
H      0.934900000000     0.160200000000     0.414700000000   
H      0.560800000000     0.688000000000     0.776600000000   
H      0.979500000000     0.720700000000     0.579200000000   
H      0.800500000000     0.685900000000     0.569400000000   
H      0.892900000000     0.194700000000     0.563400000000   
H      0.479500000000     0.900300000000     0.258800000000   
H      0.368700000000     0.063400000000     0.670500000000   
H      0.695500000000     0.310700000000     0.273600000000   
H      0.676900000000     0.354400000000     0.295300000000   
H      0.436600000000     0.131300000000     0.829500000000   
H      0.411400000000     0.784200000000     0.723400000000   
H      0.637400000000     0.298700000000     0.044700000000   
H      0.127700000000     0.989800000000     0.325300000000   
H      0.641500000000     0.400300000000     0.920800000000   
H      0.339800000000     0.774700000000     0.754500000000   
H      0.079200000000     0.784700000000     0.582100000000   
H      0.088600000000     0.812000000000     0.372800000000   
H      0.599000000000     0.330700000000     0.170500000000   
H      0.206700000000     0.342200000000     0.039100000000   
H      0.911400000000     0.188000000000     0.627200000000   
H      0.973500000000     0.805900000000     0.101600000000   
H      0.885400000000     0.768900000000     0.699500000000   
H      0.385300000000     0.526800000000     0.194500000000   
H      0.354400000000     0.559100000000     0.677500000000   
H      0.313500000000     0.730700000000     0.977000000000   
H      0.131300000000     0.329500000000     0.936600000000   
H      0.065100000000     0.225300000000     0.979800000000   
H      0.702600000000     0.497100000000     0.917900000000   
H      0.141500000000     0.809200000000     0.114700000000   
H      0.746300000000     0.663500000000     0.477000000000   
H      0.194700000000     0.063400000000     0.392900000000   
H      0.383500000000     0.768900000000     0.069400000000   
H      0.189300000000     0.384800000000     0.462900000000   
H      0.023000000000     0.253700000000     0.836500000000   
H      0.792200000000     0.136500000000     0.507500000000   
H      0.039100000000     0.196900000000     0.332400000000   
H      0.962900000000     0.189300000000     0.884800000000   
H      0.813500000000     0.836500000000     0.582800000000   
H      0.510200000000     0.372300000000     0.174700000000   
H      0.835500000000     0.637900000000     0.510200000000   
H      0.065100000000     0.839800000000     0.585300000000   
H      0.685900000000     0.616500000000     0.885400000000   
H      0.071500000000     0.231700000000     0.401000000000   
H      0.667700000000     0.694500000000     0.809200000000   
H      0.795300000000     0.676900000000     0.854400000000   
H      0.145600000000     0.823100000000     0.204700000000   
H      0.520500000000     0.099700000000     0.741200000000   
H      0.871000000000     0.715300000000     0.007500000000   
H      0.920800000000     0.705500000000     0.002900000000   
H      0.641500000000     0.114700000000     0.809200000000   
H      0.329500000000     0.892900000000     0.198200000000   
H      0.167600000000     0.871900000000     0.473500000000   
H      0.414700000000     0.754500000000     0.979800000000   
H      0.914700000000     0.979800000000     0.754500000000   
H      0.677500000000     0.618400000000     0.823100000000   
H      0.579200000000     0.997100000000     0.294500000000   
H      0.753700000000     0.523000000000     0.336500000000   
H      0.614600000000     0.314100000000     0.883500000000   
H      0.858500000000     0.190800000000     0.885300000000   