%BLOCK LATTICE_CART
ang    # angstrom units
  26.771000000000    0.000000000000     0.000000000000   
  0.000000000000     26.771000000000    0.000000000000   
  0.000000000000     0.000000000000     26.771000000000  
%ENDBLOCK LATTICE_CART

%BLOCK POSITIONS_FRAC
O      0.258700000000     0.183200000000     0.945400000000   
O      0.258700000000     0.683200000000     0.445400000000   
O      0.758700000000     0.183200000000     0.445400000000   
O      0.758700000000     0.683200000000     0.945400000000   
O      0.741300000000     0.816800000000     0.945400000000   
O      0.741300000000     0.316800000000     0.445400000000   
O      0.241300000000     0.816800000000     0.445400000000   
O      0.241300000000     0.316800000000     0.945400000000   
O      0.741300000000     0.183200000000     0.054600000000   
O      0.741300000000     0.683200000000     0.554600000000   
O      0.241300000000     0.183200000000     0.554600000000   
O      0.241300000000     0.683200000000     0.054600000000   
O      0.258700000000     0.816800000000     0.054600000000   
O      0.258700000000     0.316800000000     0.554600000000   
O      0.758700000000     0.816800000000     0.554600000000   
O      0.758700000000     0.316800000000     0.054600000000   
O      0.945400000000     0.258700000000     0.183200000000   
O      0.945400000000     0.758700000000     0.683200000000   
O      0.445400000000     0.258700000000     0.683200000000   
O      0.445400000000     0.758700000000     0.183200000000   
O      0.945400000000     0.741300000000     0.816800000000   
O      0.945400000000     0.241300000000     0.316800000000   
O      0.445400000000     0.741300000000     0.316800000000   
O      0.445400000000     0.241300000000     0.816800000000   
O      0.054600000000     0.741300000000     0.183200000000   
O      0.054600000000     0.241300000000     0.683200000000   
O      0.554600000000     0.741300000000     0.683200000000   
O      0.554600000000     0.241300000000     0.183200000000   
O      0.054600000000     0.258700000000     0.816800000000   
O      0.054600000000     0.758700000000     0.316800000000   
O      0.554600000000     0.258700000000     0.316800000000   
O      0.554600000000     0.758700000000     0.816800000000   
O      0.183200000000     0.945400000000     0.258700000000   
O      0.183200000000     0.445400000000     0.758700000000   
O      0.683200000000     0.945400000000     0.758700000000   
O      0.683200000000     0.445400000000     0.258700000000   
O      0.816800000000     0.945400000000     0.741300000000   
O      0.816800000000     0.445400000000     0.241300000000   
O      0.316800000000     0.945400000000     0.241300000000   
O      0.316800000000     0.445400000000     0.741300000000   
O      0.183200000000     0.054600000000     0.741300000000   
O      0.183200000000     0.554600000000     0.241300000000   
O      0.683200000000     0.054600000000     0.241300000000   
O      0.683200000000     0.554600000000     0.741300000000   
O      0.816800000000     0.054600000000     0.258700000000   
O      0.816800000000     0.554600000000     0.758700000000   
O      0.316800000000     0.054600000000     0.758700000000   
O      0.316800000000     0.554600000000     0.258700000000   
O      0.183200000000     0.258700000000     0.054600000000   
O      0.183200000000     0.758700000000     0.554600000000   
O      0.683200000000     0.258700000000     0.554600000000   
O      0.683200000000     0.758700000000     0.054600000000   
O      0.816800000000     0.741300000000     0.054600000000   
O      0.816800000000     0.241300000000     0.554600000000   
O      0.316800000000     0.741300000000     0.554600000000   
O      0.316800000000     0.241300000000     0.054600000000   
O      0.183200000000     0.741300000000     0.945400000000   
O      0.183200000000     0.241300000000     0.445400000000   
O      0.683200000000     0.741300000000     0.445400000000   
O      0.683200000000     0.241300000000     0.945400000000   
O      0.816800000000     0.258700000000     0.945400000000   
O      0.816800000000     0.758700000000     0.445400000000   
O      0.316800000000     0.258700000000     0.445400000000   
O      0.316800000000     0.758700000000     0.945400000000   
O      0.258700000000     0.945400000000     0.816800000000   
O      0.258700000000     0.445400000000     0.316800000000   
O      0.758700000000     0.945400000000     0.316800000000   
O      0.758700000000     0.445400000000     0.816800000000   
O      0.741300000000     0.945400000000     0.183200000000   
O      0.741300000000     0.445400000000     0.683200000000   
O      0.241300000000     0.945400000000     0.683200000000   
O      0.241300000000     0.445400000000     0.183200000000   
O      0.741300000000     0.054600000000     0.816800000000   
O      0.741300000000     0.554600000000     0.316800000000   
O      0.241300000000     0.054600000000     0.316800000000   
O      0.241300000000     0.554600000000     0.816800000000   
O      0.258700000000     0.054600000000     0.183200000000   
O      0.258700000000     0.554600000000     0.683200000000   
O      0.758700000000     0.054600000000     0.683200000000   
O      0.758700000000     0.554600000000     0.183200000000   
O      0.945400000000     0.183200000000     0.741300000000   
O      0.945400000000     0.683200000000     0.241300000000   
O      0.445400000000     0.183200000000     0.241300000000   
O      0.445400000000     0.683200000000     0.741300000000   
O      0.945400000000     0.816800000000     0.258700000000   
O      0.945400000000     0.316800000000     0.758700000000   
O      0.445400000000     0.816800000000     0.758700000000   
O      0.445400000000     0.316800000000     0.258700000000   
O      0.054600000000     0.183200000000     0.258700000000   
O      0.054600000000     0.683200000000     0.758700000000   
O      0.554600000000     0.183200000000     0.758700000000   
O      0.554600000000     0.683200000000     0.258700000000   
O      0.054600000000     0.816800000000     0.741300000000   
O      0.054600000000     0.316800000000     0.241300000000   
O      0.554600000000     0.816800000000     0.241300000000   
O      0.554600000000     0.316800000000     0.741300000000   
O      0.741300000000     0.816800000000     0.054600000000   
O      0.741300000000     0.316800000000     0.554600000000   
O      0.241300000000     0.816800000000     0.554600000000   
O      0.241300000000     0.316800000000     0.054600000000   
O      0.258700000000     0.183200000000     0.054600000000   
O      0.258700000000     0.683200000000     0.554600000000   
O      0.758700000000     0.183200000000     0.554600000000   
O      0.758700000000     0.683200000000     0.054600000000   
O      0.258700000000     0.816800000000     0.945400000000   
O      0.258700000000     0.316800000000     0.445400000000   
O      0.758700000000     0.816800000000     0.445400000000   
O      0.758700000000     0.316800000000     0.945400000000   
O      0.741300000000     0.183200000000     0.945400000000   
O      0.741300000000     0.683200000000     0.445400000000   
O      0.241300000000     0.183200000000     0.445400000000   
O      0.241300000000     0.683200000000     0.945400000000   
O      0.054600000000     0.741300000000     0.816800000000   
O      0.054600000000     0.241300000000     0.316800000000   
O      0.554600000000     0.741300000000     0.316800000000   
O      0.554600000000     0.241300000000     0.816800000000   
O      0.054600000000     0.258700000000     0.183200000000   
O      0.054600000000     0.758700000000     0.683200000000   
O      0.554600000000     0.258700000000     0.683200000000   
O      0.554600000000     0.758700000000     0.183200000000   
O      0.945400000000     0.258700000000     0.816800000000   
O      0.945400000000     0.758700000000     0.316800000000   
O      0.445400000000     0.258700000000     0.316800000000   
O      0.445400000000     0.758700000000     0.816800000000   
O      0.945400000000     0.741300000000     0.183200000000   
O      0.945400000000     0.241300000000     0.683200000000   
O      0.445400000000     0.741300000000     0.683200000000   
O      0.445400000000     0.241300000000     0.183200000000   
O      0.816800000000     0.054600000000     0.741300000000   
O      0.816800000000     0.554600000000     0.241300000000   
O      0.316800000000     0.054600000000     0.241300000000   
O      0.316800000000     0.554600000000     0.741300000000   
O      0.183200000000     0.054600000000     0.258700000000   
O      0.183200000000     0.554600000000     0.758700000000   
O      0.683200000000     0.054600000000     0.758700000000   
O      0.683200000000     0.554600000000     0.258700000000   
O      0.816800000000     0.945400000000     0.258700000000   
O      0.816800000000     0.445400000000     0.758700000000   
O      0.316800000000     0.945400000000     0.758700000000   
O      0.316800000000     0.445400000000     0.258700000000   
O      0.183200000000     0.945400000000     0.741300000000   
O      0.183200000000     0.445400000000     0.241300000000   
O      0.683200000000     0.945400000000     0.241300000000   
O      0.683200000000     0.445400000000     0.741300000000   
O      0.816800000000     0.741300000000     0.945400000000   
O      0.816800000000     0.241300000000     0.445400000000   
O      0.316800000000     0.741300000000     0.445400000000   
O      0.316800000000     0.241300000000     0.945400000000   
O      0.183200000000     0.258700000000     0.945400000000   
O      0.183200000000     0.758700000000     0.445400000000   
O      0.683200000000     0.258700000000     0.445400000000   
O      0.683200000000     0.758700000000     0.945400000000   
O      0.816800000000     0.258700000000     0.054600000000   
O      0.816800000000     0.758700000000     0.554600000000   
O      0.316800000000     0.258700000000     0.554600000000   
O      0.316800000000     0.758700000000     0.054600000000   
O      0.183200000000     0.741300000000     0.054600000000   
O      0.183200000000     0.241300000000     0.554600000000   
O      0.683200000000     0.741300000000     0.554600000000   
O      0.683200000000     0.241300000000     0.054600000000   
O      0.741300000000     0.054600000000     0.183200000000   
O      0.741300000000     0.554600000000     0.683200000000   
O      0.241300000000     0.054600000000     0.683200000000   
O      0.241300000000     0.554600000000     0.183200000000   
O      0.258700000000     0.054600000000     0.816800000000   
O      0.258700000000     0.554600000000     0.316800000000   
O      0.758700000000     0.054600000000     0.316800000000   
O      0.758700000000     0.554600000000     0.816800000000   
O      0.258700000000     0.945400000000     0.183200000000   
O      0.258700000000     0.445400000000     0.683200000000   
O      0.758700000000     0.945400000000     0.683200000000   
O      0.758700000000     0.445400000000     0.183200000000   
O      0.741300000000     0.945400000000     0.816800000000   
O      0.741300000000     0.445400000000     0.316800000000   
O      0.241300000000     0.945400000000     0.316800000000   
O      0.241300000000     0.445400000000     0.816800000000   
O      0.054600000000     0.816800000000     0.258700000000   
O      0.054600000000     0.316800000000     0.758700000000   
O      0.554600000000     0.816800000000     0.758700000000   
O      0.554600000000     0.316800000000     0.258700000000   
O      0.054600000000     0.183200000000     0.741300000000   
O      0.054600000000     0.683200000000     0.241300000000   
O      0.554600000000     0.183200000000     0.241300000000   
O      0.554600000000     0.683200000000     0.741300000000   
O      0.945400000000     0.816800000000     0.741300000000   
O      0.945400000000     0.316800000000     0.241300000000   
O      0.445400000000     0.816800000000     0.241300000000   
O      0.445400000000     0.316800000000     0.741300000000   
O      0.945400000000     0.183200000000     0.258700000000   
O      0.945400000000     0.683200000000     0.758700000000   
O      0.445400000000     0.183200000000     0.758700000000   
O      0.445400000000     0.683200000000     0.258700000000   
Mn     0.207770000000     0.207770000000     0.000000000000   
Cl     0.145390000000     0.145390000000     0.000000000000   
Mn     0.207770000000     0.707770000000     0.500000000000   
Cl     0.145390000000     0.645390000000     0.500000000000   
Mn     0.707770000000     0.207770000000     0.500000000000   
Cl     0.645390000000     0.145390000000     0.500000000000   
Mn     0.707770000000     0.707770000000     0.000000000000   
Cl     0.645390000000     0.645390000000     0.000000000000   
Mn     0.792230000000     0.792230000000     0.000000000000   
Cl     0.854610000000     0.854610000000     0.000000000000   
Mn     0.792230000000     0.292230000000     0.500000000000   
Cl     0.854610000000     0.354610000000     0.500000000000   
Mn     0.292230000000     0.792230000000     0.500000000000   
Cl     0.354610000000     0.854610000000     0.500000000000   
Mn     0.292230000000     0.292230000000     0.000000000000   
Cl     0.354610000000     0.354610000000     0.000000000000   
Mn     0.792230000000     0.207770000000     0.000000000000   
Cl     0.854610000000     0.145390000000     0.000000000000   
Mn     0.792230000000     0.707770000000     0.500000000000   
Cl     0.854610000000     0.645390000000     0.500000000000   
Mn     0.292230000000     0.207770000000     0.500000000000   
Cl     0.354610000000     0.145390000000     0.500000000000   
Mn     0.292230000000     0.707770000000     0.000000000000   
Cl     0.354610000000     0.645390000000     0.000000000000   
Mn     0.207770000000     0.792230000000     0.000000000000   
Cl     0.145390000000     0.854610000000     0.000000000000   
Mn     0.207770000000     0.292230000000     0.500000000000   
Cl     0.145390000000     0.354610000000     0.500000000000   
Mn     0.707770000000     0.792230000000     0.500000000000   
Cl     0.645390000000     0.854610000000     0.500000000000   
Mn     0.707770000000     0.292230000000     0.000000000000   
Cl     0.645390000000     0.354610000000     0.000000000000   
Mn     0.000000000000     0.207770000000     0.207770000000   
Cl     0.000000000000     0.145390000000     0.145390000000   
Mn     0.000000000000     0.707770000000     0.707770000000   
Cl     0.000000000000     0.645390000000     0.645390000000   
Mn     0.500000000000     0.207770000000     0.707770000000   
Cl     0.500000000000     0.145390000000     0.645390000000   
Mn     0.500000000000     0.707770000000     0.207770000000   
Cl     0.500000000000     0.645390000000     0.145390000000   
Mn     0.000000000000     0.792230000000     0.792230000000   
Cl     0.000000000000     0.854610000000     0.854610000000   
Mn     0.000000000000     0.292230000000     0.292230000000   
Cl     0.000000000000     0.354610000000     0.354610000000   
Mn     0.500000000000     0.792230000000     0.292230000000   
Cl     0.500000000000     0.854610000000     0.354610000000   
Mn     0.500000000000     0.292230000000     0.792230000000   
Cl     0.500000000000     0.354610000000     0.854610000000   
Mn     0.000000000000     0.792230000000     0.207770000000   
Cl     0.000000000000     0.854610000000     0.145390000000   
Mn     0.000000000000     0.292230000000     0.707770000000   
Cl     0.000000000000     0.354610000000     0.645390000000   
Mn     0.500000000000     0.792230000000     0.707770000000   
Cl     0.500000000000     0.854610000000     0.645390000000   
Mn     0.500000000000     0.292230000000     0.207770000000   
Cl     0.500000000000     0.354610000000     0.145390000000   
Mn     0.000000000000     0.207770000000     0.792230000000   
Cl     0.000000000000     0.145390000000     0.854610000000   
Mn     0.000000000000     0.707770000000     0.292230000000   
Cl     0.000000000000     0.645390000000     0.354610000000   
Mn     0.500000000000     0.207770000000     0.292230000000   
Cl     0.500000000000     0.145390000000     0.354610000000   
Mn     0.500000000000     0.707770000000     0.792230000000   
Cl     0.500000000000     0.645390000000     0.854610000000   
Mn     0.207770000000     0.000000000000     0.207770000000   
Cl     0.145390000000     0.000000000000     0.145390000000   
Mn     0.207770000000     0.500000000000     0.707770000000   
Cl     0.145390000000     0.500000000000     0.645390000000   
Mn     0.707770000000     0.000000000000     0.707770000000   
Cl     0.645390000000     0.000000000000     0.645390000000   
Mn     0.707770000000     0.500000000000     0.207770000000   
Cl     0.645390000000     0.500000000000     0.145390000000   
Mn     0.792230000000     0.000000000000     0.792230000000   
Cl     0.854610000000     0.000000000000     0.854610000000   
Mn     0.792230000000     0.500000000000     0.292230000000   
Cl     0.854610000000     0.500000000000     0.354610000000   
Mn     0.292230000000     0.000000000000     0.292230000000   
Cl     0.354610000000     0.000000000000     0.354610000000   
Mn     0.292230000000     0.500000000000     0.792230000000   
Cl     0.354610000000     0.500000000000     0.854610000000   
Mn     0.207770000000     0.000000000000     0.792230000000   
Cl     0.145390000000     0.000000000000     0.854610000000   
Mn     0.207770000000     0.500000000000     0.292230000000   
Cl     0.145390000000     0.500000000000     0.354610000000   
Mn     0.707770000000     0.000000000000     0.292230000000   
Cl     0.645390000000     0.000000000000     0.354610000000   
Mn     0.707770000000     0.500000000000     0.792230000000   
Cl     0.645390000000     0.500000000000     0.854610000000   
Mn     0.792230000000     0.000000000000     0.207770000000   
Cl     0.854610000000     0.000000000000     0.145390000000   
Mn     0.792230000000     0.500000000000     0.707770000000   
Cl     0.854610000000     0.500000000000     0.645390000000   
Mn     0.292230000000     0.000000000000     0.707770000000   
Cl     0.354610000000     0.000000000000     0.645390000000   
Mn     0.292230000000     0.500000000000     0.207770000000   
Cl     0.354610000000     0.500000000000     0.145390000000   
C      0.322100000000     0.177900000000     0.885000000000   
C      0.297500000000     0.202500000000     0.929800000000   
C      0.322100000000     0.677900000000     0.385000000000   
C      0.297500000000     0.702500000000     0.429800000000   
C      0.677900000000     0.822100000000     0.885000000000   
C      0.702500000000     0.797500000000     0.929800000000   
C      0.677900000000     0.322100000000     0.385000000000   
C      0.702500000000     0.297500000000     0.429800000000   
C      0.177900000000     0.322100000000     0.885000000000   
C      0.202500000000     0.297500000000     0.929800000000   
C      0.677900000000     0.177900000000     0.115000000000   
C      0.702500000000     0.202500000000     0.070200000000   
C      0.677900000000     0.677900000000     0.615000000000   
C      0.702500000000     0.702500000000     0.570200000000   
C      0.177900000000     0.177900000000     0.615000000000   
C      0.202500000000     0.202500000000     0.570200000000   
C      0.322100000000     0.822100000000     0.115000000000   
C      0.297500000000     0.797500000000     0.070200000000   
C      0.322100000000     0.322100000000     0.615000000000   
C      0.297500000000     0.297500000000     0.570200000000   
C      0.885000000000     0.322100000000     0.177900000000   
C      0.929800000000     0.297500000000     0.202500000000   
C      0.385000000000     0.322100000000     0.677900000000   
C      0.429800000000     0.297500000000     0.702500000000   
C      0.885000000000     0.677900000000     0.822100000000   
C      0.929800000000     0.702500000000     0.797500000000   
C      0.885000000000     0.177900000000     0.322100000000   
C      0.929800000000     0.202500000000     0.297500000000   
C      0.385000000000     0.677900000000     0.322100000000   
C      0.429800000000     0.702500000000     0.297500000000   
C      0.115000000000     0.677900000000     0.177900000000   
C      0.070200000000     0.702500000000     0.202500000000   
C      0.615000000000     0.677900000000     0.677900000000   
C      0.570200000000     0.702500000000     0.702500000000   
C      0.615000000000     0.177900000000     0.177900000000   
C      0.570200000000     0.202500000000     0.202500000000   
C      0.115000000000     0.322100000000     0.822100000000   
C      0.070200000000     0.297500000000     0.797500000000   
C      0.615000000000     0.322100000000     0.322100000000   
C      0.570200000000     0.297500000000     0.297500000000   
C      0.177900000000     0.885000000000     0.322100000000   
C      0.202500000000     0.929800000000     0.297500000000   
C      0.177900000000     0.385000000000     0.822100000000   
C      0.202500000000     0.429800000000     0.797500000000   
C      0.822100000000     0.885000000000     0.677900000000   
C      0.797500000000     0.929800000000     0.702500000000   
C      0.822100000000     0.385000000000     0.177900000000   
C      0.797500000000     0.429800000000     0.202500000000   
C      0.322100000000     0.885000000000     0.177900000000   
C      0.297500000000     0.929800000000     0.202500000000   
C      0.177900000000     0.115000000000     0.677900000000   
C      0.202500000000     0.070200000000     0.702500000000   
C      0.177900000000     0.615000000000     0.177900000000   
C      0.202500000000     0.570200000000     0.202500000000   
C      0.822100000000     0.115000000000     0.322100000000   
C      0.797500000000     0.070200000000     0.297500000000   
C      0.822100000000     0.615000000000     0.822100000000   
C      0.797500000000     0.570200000000     0.797500000000   
C      0.322100000000     0.615000000000     0.322100000000   
C      0.297500000000     0.570200000000     0.297500000000   
C      0.177900000000     0.322100000000     0.115000000000   
C      0.202500000000     0.297500000000     0.070200000000   
C      0.177900000000     0.822100000000     0.615000000000   
C      0.202500000000     0.797500000000     0.570200000000   
C      0.822100000000     0.677900000000     0.115000000000   
C      0.797500000000     0.702500000000     0.070200000000   
C      0.822100000000     0.177900000000     0.615000000000   
C      0.797500000000     0.202500000000     0.570200000000   
C      0.322100000000     0.177900000000     0.115000000000   
C      0.297500000000     0.202500000000     0.070200000000   
C      0.177900000000     0.677900000000     0.885000000000   
C      0.202500000000     0.702500000000     0.929800000000   
C      0.177900000000     0.177900000000     0.385000000000   
C      0.202500000000     0.202500000000     0.429800000000   
C      0.822100000000     0.322100000000     0.885000000000   
C      0.797500000000     0.297500000000     0.929800000000   
C      0.822100000000     0.822100000000     0.385000000000   
C      0.797500000000     0.797500000000     0.429800000000   
C      0.322100000000     0.322100000000     0.385000000000   
C      0.297500000000     0.297500000000     0.429800000000   
C      0.322100000000     0.885000000000     0.822100000000   
C      0.297500000000     0.929800000000     0.797500000000   
C      0.322100000000     0.385000000000     0.322100000000   
C      0.297500000000     0.429800000000     0.297500000000   
C      0.677900000000     0.885000000000     0.177900000000   
C      0.702500000000     0.929800000000     0.202500000000   
C      0.677900000000     0.385000000000     0.677900000000   
C      0.702500000000     0.429800000000     0.702500000000   
C      0.177900000000     0.385000000000     0.177900000000   
C      0.202500000000     0.429800000000     0.202500000000   
C      0.677900000000     0.115000000000     0.822100000000   
C      0.702500000000     0.070200000000     0.797500000000   
C      0.677900000000     0.615000000000     0.322100000000   
C      0.702500000000     0.570200000000     0.297500000000   
C      0.177900000000     0.115000000000     0.322100000000   
C      0.202500000000     0.070200000000     0.297500000000   
C      0.322100000000     0.115000000000     0.177900000000   
C      0.297500000000     0.070200000000     0.202500000000   
C      0.322100000000     0.615000000000     0.677900000000   
C      0.297500000000     0.570200000000     0.702500000000   
C      0.885000000000     0.177900000000     0.677900000000   
C      0.929800000000     0.202500000000     0.702500000000   
C      0.385000000000     0.177900000000     0.177900000000   
C      0.429800000000     0.202500000000     0.202500000000   
C      0.885000000000     0.822100000000     0.322100000000   
C      0.929800000000     0.797500000000     0.297500000000   
C      0.385000000000     0.822100000000     0.822100000000   
C      0.429800000000     0.797500000000     0.797500000000   
C      0.385000000000     0.322100000000     0.322100000000   
C      0.429800000000     0.297500000000     0.297500000000   
C      0.115000000000     0.177900000000     0.322100000000   
C      0.070200000000     0.202500000000     0.297500000000   
C      0.615000000000     0.177900000000     0.822100000000   
C      0.570200000000     0.202500000000     0.797500000000   
C      0.115000000000     0.822100000000     0.677900000000   
C      0.070200000000     0.797500000000     0.702500000000   
C      0.115000000000     0.322100000000     0.177900000000   
C      0.070200000000     0.297500000000     0.202500000000   
C      0.615000000000     0.822100000000     0.177900000000   
C      0.570200000000     0.797500000000     0.202500000000   
C      0.677900000000     0.822100000000     0.115000000000   
C      0.702500000000     0.797500000000     0.070200000000   
C      0.677900000000     0.322100000000     0.615000000000   
C      0.702500000000     0.297500000000     0.570200000000   
C      0.322100000000     0.677900000000     0.615000000000   
C      0.297500000000     0.702500000000     0.570200000000   
C      0.322100000000     0.822100000000     0.885000000000   
C      0.297500000000     0.797500000000     0.929800000000   
C      0.677900000000     0.177900000000     0.885000000000   
C      0.702500000000     0.202500000000     0.929800000000   
C      0.677900000000     0.677900000000     0.385000000000   
C      0.702500000000     0.702500000000     0.429800000000   
C      0.115000000000     0.677900000000     0.822100000000   
C      0.070200000000     0.702500000000     0.797500000000   
C      0.615000000000     0.677900000000     0.322100000000   
C      0.570200000000     0.702500000000     0.297500000000   
C      0.615000000000     0.322100000000     0.677900000000   
C      0.570200000000     0.297500000000     0.702500000000   
C      0.885000000000     0.322100000000     0.822100000000   
C      0.929800000000     0.297500000000     0.797500000000   
C      0.885000000000     0.677900000000     0.177900000000   
C      0.929800000000     0.702500000000     0.202500000000   
C      0.385000000000     0.677900000000     0.677900000000   
C      0.429800000000     0.702500000000     0.702500000000   
C      0.822100000000     0.115000000000     0.677900000000   
C      0.797500000000     0.070200000000     0.702500000000   
C      0.822100000000     0.615000000000     0.177900000000   
C      0.797500000000     0.570200000000     0.202500000000   
C      0.177900000000     0.615000000000     0.822100000000   
C      0.202500000000     0.570200000000     0.797500000000   
C      0.822100000000     0.885000000000     0.322100000000   
C      0.797500000000     0.929800000000     0.297500000000   
C      0.822100000000     0.385000000000     0.822100000000   
C      0.797500000000     0.429800000000     0.797500000000   
C      0.177900000000     0.885000000000     0.677900000000   
C      0.202500000000     0.929800000000     0.702500000000   
C      0.822100000000     0.677900000000     0.885000000000   
C      0.797500000000     0.702500000000     0.929800000000   
C      0.822100000000     0.177900000000     0.385000000000   
C      0.797500000000     0.202500000000     0.429800000000   
C      0.177900000000     0.822100000000     0.385000000000   
C      0.202500000000     0.797500000000     0.429800000000   
C      0.822100000000     0.322100000000     0.115000000000   
C      0.797500000000     0.297500000000     0.070200000000   
C      0.822100000000     0.822100000000     0.615000000000   
C      0.797500000000     0.797500000000     0.570200000000   
C      0.177900000000     0.677900000000     0.115000000000   
C      0.202500000000     0.702500000000     0.070200000000   
C      0.677900000000     0.115000000000     0.177900000000   
C      0.702500000000     0.070200000000     0.202500000000   
C      0.677900000000     0.615000000000     0.677900000000   
C      0.702500000000     0.570200000000     0.702500000000   
C      0.322100000000     0.115000000000     0.822100000000   
C      0.297500000000     0.070200000000     0.797500000000   
C      0.322100000000     0.385000000000     0.677900000000   
C      0.297500000000     0.429800000000     0.702500000000   
C      0.677900000000     0.885000000000     0.822100000000   
C      0.702500000000     0.929800000000     0.797500000000   
C      0.677900000000     0.385000000000     0.322100000000   
C      0.702500000000     0.429800000000     0.297500000000   
C      0.115000000000     0.822100000000     0.322100000000   
C      0.070200000000     0.797500000000     0.297500000000   
C      0.615000000000     0.822100000000     0.822100000000   
C      0.570200000000     0.797500000000     0.797500000000   