%BLOCK LATTICE_CART
ang    # angstrom units
  10.829400000000    0.000000000000     0.000000000000   
  0.000000000000     12.746500000000    0.000000000000   
 -1.105264154138     0.000000000000     12.347731757678  
%ENDBLOCK LATTICE_CART

%BLOCK POSITIONS_FRAC
Fe     0.009923333333     0.439500000000     0.329590000000   
Fe     0.169820000000     0.437560000000     0.426105000000   
P      0.188523333333     0.438290000000     0.059290000000   
P      0.143090000000     0.313685000000     0.446140000000   
P      0.249343333333     0.419925000000     0.348455000000   
O      0.160200000000     0.306800000000     0.004350000000   
O      0.291933333333     0.444000000000     0.365250000000   
O      0.150566666667     0.265800000000     0.411800000000   
O      0.168633333333     0.388950000000     0.080350000000   
O      0.071233333333     0.433150000000     0.311200000000   
O      0.042800000000     0.434100000000     0.407150000000   
O      0.221033333333     0.433000000000     0.391400000000   
O      0.195100000000     0.434650000000     0.499900000000   
O      0.160933333333     0.361150000000     0.420150000000   
O      0.163166666667     0.485200000000     0.074250000000   
O      0.107466666667     0.439850000000     0.447000000000   
O      0.135833333333     0.441050000000     0.349200000000   
O      0.234066666667     0.442450000000     0.087850000000   
H      0.233166666667     0.444600000000     0.120700000000   
O      0.094733333333     0.320050000000     0.447450000000   
H      0.084000000000     0.323950000000     0.416500000000   
O      0.255633333333     0.357550000000     0.351400000000   
H      0.272533333333     0.348700000000     0.330500000000   
O      0.233966666667     0.435800000000     0.292200000000   
C      0.098000000000     0.437000000000     0.350950000000   
C      0.081466666667     0.436700000000     0.406950000000   
Fe     0.156743333333     0.189500000000     0.420410000000   
Fe     0.330180000000     0.187560000000     0.323895000000   
P      0.311476666667     0.188290000000     0.190710000000   
P      0.023576666667     0.063685000000     0.303860000000   
P      0.250656666667     0.169925000000     0.401545000000   
O      0.006466666667     0.056800000000     0.245650000000   
O      0.208066666667     0.194000000000     0.384750000000   
O      0.016100000000     0.015800000000     0.338200000000   
O      0.331366666667     0.138950000000     0.169650000000   
O      0.095433333333     0.183150000000     0.438800000000   
O      0.123866666667     0.184100000000     0.342850000000   
O      0.278966666667     0.183000000000     0.358600000000   
O      0.304900000000     0.184650000000     0.250100000000   
O      0.005733333333     0.111150000000     0.329850000000   
O      0.003500000000     0.235200000000     0.175750000000   
O      0.059200000000     0.189850000000     0.303000000000   
O      0.030833333333     0.191050000000     0.400800000000   
O      0.265933333333     0.192450000000     0.162150000000   
H      0.266833333333     0.194600000000     0.129300000000   
O      0.071933333333     0.070050000000     0.302550000000   
H      0.082666666667     0.073950000000     0.333500000000   
O      0.244366666667     0.107550000000     0.398600000000   
H      0.227466666667     0.098700000000     0.419500000000   
O      0.266033333333     0.185800000000     0.457800000000   
C      0.068666666667     0.187000000000     0.399050000000   
C      0.085200000000     0.186700000000     0.343050000000   
Fe     0.323410000000     0.060500000000     0.170410000000   
Fe     0.163513333333     0.062440000000     0.073895000000   
P      0.144810000000     0.061710000000     0.440710000000   
P      0.190243333333     0.186315000000     0.053860000000   
P      0.083990000000     0.080075000000     0.151545000000   
O      0.173133333333     0.193200000000     0.495650000000   
O      0.041400000000     0.056000000000     0.134750000000   
O      0.182766666667     0.234200000000     0.088200000000   
O      0.164700000000     0.111050000000     0.419650000000   
O      0.262100000000     0.066850000000     0.188800000000   
O      0.290533333333     0.065900000000     0.092850000000   
O      0.112300000000     0.067000000000     0.108600000000   
O      0.138233333333     0.065350000000     0.000100000000   
O      0.172400000000     0.138850000000     0.079850000000   
O      0.170166666667     0.014800000000     0.425750000000   
O      0.225866666667     0.060150000000     0.053000000000   
O      0.197500000000     0.058950000000     0.150800000000   
O      0.099266666667     0.057550000000     0.412150000000   
H      0.100166666667     0.055400000000     0.379300000000   
O      0.238600000000     0.179950000000     0.052550000000   
H      0.249333333333     0.176050000000     0.083500000000   
O      0.077700000000     0.142450000000     0.148600000000   
H      0.060800000000     0.151300000000     0.169500000000   
O      0.099366666667     0.064200000000     0.207800000000   
C      0.235333333333     0.063000000000     0.149050000000   
C      0.251866666667     0.063300000000     0.093050000000   
Fe     0.176590000000     0.310500000000     0.079590000000   
Fe     0.003153333333     0.312440000000     0.176105000000   
P      0.021856666667     0.311710000000     0.309290000000   
P      0.309756666667     0.436315000000     0.196140000000   
P      0.082676666667     0.330075000000     0.098455000000   
O      0.326866666667     0.443200000000     0.254350000000   
O      0.125266666667     0.306000000000     0.115250000000   
O      0.317233333333     0.484200000000     0.161800000000   
O      0.001966666667     0.361050000000     0.330350000000   
O      0.237900000000     0.316850000000     0.061200000000   
O      0.209466666667     0.315900000000     0.157150000000   
O      0.054366666667     0.317000000000     0.141400000000   
O      0.028433333333     0.315350000000     0.249900000000   
O      0.327600000000     0.388850000000     0.170150000000   
O      0.329833333333     0.264800000000     0.324250000000   
O      0.274133333333     0.310150000000     0.197000000000   
O      0.302500000000     0.308950000000     0.099200000000   
O      0.067400000000     0.307550000000     0.337850000000   
H      0.066500000000     0.305400000000     0.370700000000   
O      0.261400000000     0.429950000000     0.197450000000   
H      0.250666666667     0.426050000000     0.166500000000   
O      0.088966666667     0.392450000000     0.101400000000   
H      0.105866666667     0.401300000000     0.080500000000   
O      0.067300000000     0.314200000000     0.042200000000   
C      0.264666666667     0.313000000000     0.100950000000   
C      0.248133333333     0.313300000000     0.156950000000   
Fe     0.009923333333     0.439500000000     0.829590000000   
Fe     0.169820000000     0.437560000000     0.926105000000   
P      0.188523333333     0.438290000000     0.559290000000   
P      0.143090000000     0.313685000000     0.946140000000   
P      0.249343333333     0.419925000000     0.848455000000   
O      0.160200000000     0.306800000000     0.504350000000   
O      0.291933333333     0.444000000000     0.865250000000   
O      0.150566666667     0.265800000000     0.911800000000   
O      0.168633333333     0.388950000000     0.580350000000   
O      0.071233333333     0.433150000000     0.811200000000   
O      0.042800000000     0.434100000000     0.907150000000   
O      0.221033333333     0.433000000000     0.891400000000   
O      0.195100000000     0.434650000000     0.999900000000   
O      0.160933333333     0.361150000000     0.920150000000   
O      0.163166666667     0.485200000000     0.574250000000   
O      0.107466666667     0.439850000000     0.947000000000   
O      0.135833333333     0.441050000000     0.849200000000   
O      0.234066666667     0.442450000000     0.587850000000   
H      0.233166666667     0.444600000000     0.620700000000   
O      0.094733333333     0.320050000000     0.947450000000   
H      0.084000000000     0.323950000000     0.916500000000   
O      0.255633333333     0.357550000000     0.851400000000   
H      0.272533333333     0.348700000000     0.830500000000   
O      0.233966666667     0.435800000000     0.792200000000   
C      0.098000000000     0.437000000000     0.850950000000   
C      0.081466666667     0.436700000000     0.906950000000   
Fe     0.156743333333     0.189500000000     0.920410000000   
Fe     0.330180000000     0.187560000000     0.823895000000   
P      0.311476666667     0.188290000000     0.690710000000   
P      0.023576666667     0.063685000000     0.803860000000   
P      0.250656666667     0.169925000000     0.901545000000   
O      0.006466666667     0.056800000000     0.745650000000   
O      0.208066666667     0.194000000000     0.884750000000   
O      0.016100000000     0.015800000000     0.838200000000   
O      0.331366666667     0.138950000000     0.669650000000   
O      0.095433333333     0.183150000000     0.938800000000   
O      0.123866666667     0.184100000000     0.842850000000   
O      0.278966666667     0.183000000000     0.858600000000   
O      0.304900000000     0.184650000000     0.750100000000   
O      0.005733333333     0.111150000000     0.829850000000   
O      0.003500000000     0.235200000000     0.675750000000   
O      0.059200000000     0.189850000000     0.803000000000   
O      0.030833333333     0.191050000000     0.900800000000   
O      0.265933333333     0.192450000000     0.662150000000   
H      0.266833333333     0.194600000000     0.629300000000   
O      0.071933333333     0.070050000000     0.802550000000   
H      0.082666666667     0.073950000000     0.833500000000   
O      0.244366666667     0.107550000000     0.898600000000   
H      0.227466666667     0.098700000000     0.919500000000   
O      0.266033333333     0.185800000000     0.957800000000   
C      0.068666666667     0.187000000000     0.899050000000   
C      0.085200000000     0.186700000000     0.843050000000   
Fe     0.323410000000     0.060500000000     0.670410000000   
Fe     0.163513333333     0.062440000000     0.573895000000   
P      0.144810000000     0.061710000000     0.940710000000   
P      0.190243333333     0.186315000000     0.553860000000   
P      0.083990000000     0.080075000000     0.651545000000   
O      0.173133333333     0.193200000000     0.995650000000   
O      0.041400000000     0.056000000000     0.634750000000   
O      0.182766666667     0.234200000000     0.588200000000   
O      0.164700000000     0.111050000000     0.919650000000   
O      0.262100000000     0.066850000000     0.688800000000   
O      0.290533333333     0.065900000000     0.592850000000   
O      0.112300000000     0.067000000000     0.608600000000   
O      0.138233333333     0.065350000000     0.500100000000   
O      0.172400000000     0.138850000000     0.579850000000   
O      0.170166666667     0.014800000000     0.925750000000   
O      0.225866666667     0.060150000000     0.553000000000   
O      0.197500000000     0.058950000000     0.650800000000   
O      0.099266666667     0.057550000000     0.912150000000   
H      0.100166666667     0.055400000000     0.879300000000   
O      0.238600000000     0.179950000000     0.552550000000   
H      0.249333333333     0.176050000000     0.583500000000   
O      0.077700000000     0.142450000000     0.648600000000   
H      0.060800000000     0.151300000000     0.669500000000   
O      0.099366666667     0.064200000000     0.707800000000   
C      0.235333333333     0.063000000000     0.649050000000   
C      0.251866666667     0.063300000000     0.593050000000   
Fe     0.176590000000     0.310500000000     0.579590000000   
Fe     0.003153333333     0.312440000000     0.676105000000   
P      0.021856666667     0.311710000000     0.809290000000   
P      0.309756666667     0.436315000000     0.696140000000   
P      0.082676666667     0.330075000000     0.598455000000   
O      0.326866666667     0.443200000000     0.754350000000   
O      0.125266666667     0.306000000000     0.615250000000   
O      0.317233333333     0.484200000000     0.661800000000   
O      0.001966666667     0.361050000000     0.830350000000   
O      0.237900000000     0.316850000000     0.561200000000   
O      0.209466666667     0.315900000000     0.657150000000   
O      0.054366666667     0.317000000000     0.641400000000   
O      0.028433333333     0.315350000000     0.749900000000   
O      0.327600000000     0.388850000000     0.670150000000   
O      0.329833333333     0.264800000000     0.824250000000   
O      0.274133333333     0.310150000000     0.697000000000   
O      0.302500000000     0.308950000000     0.599200000000   
O      0.067400000000     0.307550000000     0.837850000000   
H      0.066500000000     0.305400000000     0.870700000000   
O      0.261400000000     0.429950000000     0.697450000000   
H      0.250666666667     0.426050000000     0.666500000000   
O      0.088966666667     0.392450000000     0.601400000000   
H      0.105866666667     0.401300000000     0.580500000000   
O      0.067300000000     0.314200000000     0.542200000000   
C      0.264666666667     0.313000000000     0.600950000000   
C      0.248133333333     0.313300000000     0.656950000000   
Fe     0.009923333333     0.939500000000     0.329590000000   
Fe     0.169820000000     0.937560000000     0.426105000000   
P      0.188523333333     0.938290000000     0.059290000000   
P      0.143090000000     0.813685000000     0.446140000000   
P      0.249343333333     0.919925000000     0.348455000000   
O      0.160200000000     0.806800000000     0.004350000000   
O      0.291933333333     0.944000000000     0.365250000000   
O      0.150566666667     0.765800000000     0.411800000000   
O      0.168633333333     0.888950000000     0.080350000000   
O      0.071233333333     0.933150000000     0.311200000000   
O      0.042800000000     0.934100000000     0.407150000000   
O      0.221033333333     0.933000000000     0.391400000000   
O      0.195100000000     0.934650000000     0.499900000000   
O      0.160933333333     0.861150000000     0.420150000000   
O      0.163166666667     0.985200000000     0.074250000000   
O      0.107466666667     0.939850000000     0.447000000000   
O      0.135833333333     0.941050000000     0.349200000000   
O      0.234066666667     0.942450000000     0.087850000000   
H      0.233166666667     0.944600000000     0.120700000000   
O      0.094733333333     0.820050000000     0.447450000000   
H      0.084000000000     0.823950000000     0.416500000000   
O      0.255633333333     0.857550000000     0.351400000000   
H      0.272533333333     0.848700000000     0.330500000000   
O      0.233966666667     0.935800000000     0.292200000000   
C      0.098000000000     0.937000000000     0.350950000000   
C      0.081466666667     0.936700000000     0.406950000000   
Fe     0.156743333333     0.689500000000     0.420410000000   
Fe     0.330180000000     0.687560000000     0.323895000000   
P      0.311476666667     0.688290000000     0.190710000000   
P      0.023576666667     0.563685000000     0.303860000000   
P      0.250656666667     0.669925000000     0.401545000000   
O      0.006466666667     0.556800000000     0.245650000000   
O      0.208066666667     0.694000000000     0.384750000000   
O      0.016100000000     0.515800000000     0.338200000000   
O      0.331366666667     0.638950000000     0.169650000000   
O      0.095433333333     0.683150000000     0.438800000000   
O      0.123866666667     0.684100000000     0.342850000000   
O      0.278966666667     0.683000000000     0.358600000000   
O      0.304900000000     0.684650000000     0.250100000000   
O      0.005733333333     0.611150000000     0.329850000000   
O      0.003500000000     0.735200000000     0.175750000000   
O      0.059200000000     0.689850000000     0.303000000000   
O      0.030833333333     0.691050000000     0.400800000000   
O      0.265933333333     0.692450000000     0.162150000000   
H      0.266833333333     0.694600000000     0.129300000000   
O      0.071933333333     0.570050000000     0.302550000000   
H      0.082666666667     0.573950000000     0.333500000000   
O      0.244366666667     0.607550000000     0.398600000000   
H      0.227466666667     0.598700000000     0.419500000000   
O      0.266033333333     0.685800000000     0.457800000000   
C      0.068666666667     0.687000000000     0.399050000000   
C      0.085200000000     0.686700000000     0.343050000000   
Fe     0.323410000000     0.560500000000     0.170410000000   
Fe     0.163513333333     0.562440000000     0.073895000000   
P      0.144810000000     0.561710000000     0.440710000000   
P      0.190243333333     0.686315000000     0.053860000000   
P      0.083990000000     0.580075000000     0.151545000000   
O      0.173133333333     0.693200000000     0.495650000000   
O      0.041400000000     0.556000000000     0.134750000000   
O      0.182766666667     0.734200000000     0.088200000000   
O      0.164700000000     0.611050000000     0.419650000000   
O      0.262100000000     0.566850000000     0.188800000000   
O      0.290533333333     0.565900000000     0.092850000000   
O      0.112300000000     0.567000000000     0.108600000000   
O      0.138233333333     0.565350000000     0.000100000000   
O      0.172400000000     0.638850000000     0.079850000000   
O      0.170166666667     0.514800000000     0.425750000000   
O      0.225866666667     0.560150000000     0.053000000000   
O      0.197500000000     0.558950000000     0.150800000000   
O      0.099266666667     0.557550000000     0.412150000000   
H      0.100166666667     0.555400000000     0.379300000000   
O      0.238600000000     0.679950000000     0.052550000000   
H      0.249333333333     0.676050000000     0.083500000000   
O      0.077700000000     0.642450000000     0.148600000000   
H      0.060800000000     0.651300000000     0.169500000000   
O      0.099366666667     0.564200000000     0.207800000000   
C      0.235333333333     0.563000000000     0.149050000000   
C      0.251866666667     0.563300000000     0.093050000000   
Fe     0.176590000000     0.810500000000     0.079590000000   
Fe     0.003153333333     0.812440000000     0.176105000000   
P      0.021856666667     0.811710000000     0.309290000000   
P      0.309756666667     0.936315000000     0.196140000000   
P      0.082676666667     0.830075000000     0.098455000000   
O      0.326866666667     0.943200000000     0.254350000000   
O      0.125266666667     0.806000000000     0.115250000000   
O      0.317233333333     0.984200000000     0.161800000000   
O      0.001966666667     0.861050000000     0.330350000000   
O      0.237900000000     0.816850000000     0.061200000000   
O      0.209466666667     0.815900000000     0.157150000000   
O      0.054366666667     0.817000000000     0.141400000000   
O      0.028433333333     0.815350000000     0.249900000000   
O      0.327600000000     0.888850000000     0.170150000000   
O      0.329833333333     0.764800000000     0.324250000000   
O      0.274133333333     0.810150000000     0.197000000000   
O      0.302500000000     0.808950000000     0.099200000000   
O      0.067400000000     0.807550000000     0.337850000000   
H      0.066500000000     0.805400000000     0.370700000000   
O      0.261400000000     0.929950000000     0.197450000000   
H      0.250666666667     0.926050000000     0.166500000000   
O      0.088966666667     0.892450000000     0.101400000000   
H      0.105866666667     0.901300000000     0.080500000000   
O      0.067300000000     0.814200000000     0.042200000000   
C      0.264666666667     0.813000000000     0.100950000000   
C      0.248133333333     0.813300000000     0.156950000000   
Fe     0.009923333333     0.939500000000     0.829590000000   
Fe     0.169820000000     0.937560000000     0.926105000000   
P      0.188523333333     0.938290000000     0.559290000000   
P      0.143090000000     0.813685000000     0.946140000000   
P      0.249343333333     0.919925000000     0.848455000000   
O      0.160200000000     0.806800000000     0.504350000000   
O      0.291933333333     0.944000000000     0.865250000000   
O      0.150566666667     0.765800000000     0.911800000000   
O      0.168633333333     0.888950000000     0.580350000000   
O      0.071233333333     0.933150000000     0.811200000000   
O      0.042800000000     0.934100000000     0.907150000000   
O      0.221033333333     0.933000000000     0.891400000000   
O      0.195100000000     0.934650000000     0.999900000000   
O      0.160933333333     0.861150000000     0.920150000000   
O      0.163166666667     0.985200000000     0.574250000000   
O      0.107466666667     0.939850000000     0.947000000000   
O      0.135833333333     0.941050000000     0.849200000000   
O      0.234066666667     0.942450000000     0.587850000000   
H      0.233166666667     0.944600000000     0.620700000000   
O      0.094733333333     0.820050000000     0.947450000000   
H      0.084000000000     0.823950000000     0.916500000000   
O      0.255633333333     0.857550000000     0.851400000000   
H      0.272533333333     0.848700000000     0.830500000000   
O      0.233966666667     0.935800000000     0.792200000000   
C      0.098000000000     0.937000000000     0.850950000000   
C      0.081466666667     0.936700000000     0.906950000000   
Fe     0.156743333333     0.689500000000     0.920410000000   
Fe     0.330180000000     0.687560000000     0.823895000000   
P      0.311476666667     0.688290000000     0.690710000000   
P      0.023576666667     0.563685000000     0.803860000000   
P      0.250656666667     0.669925000000     0.901545000000   
O      0.006466666667     0.556800000000     0.745650000000   
O      0.208066666667     0.694000000000     0.884750000000   
O      0.016100000000     0.515800000000     0.838200000000   
O      0.331366666667     0.638950000000     0.669650000000   
O      0.095433333333     0.683150000000     0.938800000000   
O      0.123866666667     0.684100000000     0.842850000000   
O      0.278966666667     0.683000000000     0.858600000000   
O      0.304900000000     0.684650000000     0.750100000000   
O      0.005733333333     0.611150000000     0.829850000000   
O      0.003500000000     0.735200000000     0.675750000000   
O      0.059200000000     0.689850000000     0.803000000000   
O      0.030833333333     0.691050000000     0.900800000000   
O      0.265933333333     0.692450000000     0.662150000000   
H      0.266833333333     0.694600000000     0.629300000000   
O      0.071933333333     0.570050000000     0.802550000000   
H      0.082666666667     0.573950000000     0.833500000000   
O      0.244366666667     0.607550000000     0.898600000000   
H      0.227466666667     0.598700000000     0.919500000000   
O      0.266033333333     0.685800000000     0.957800000000   
C      0.068666666667     0.687000000000     0.899050000000   
C      0.085200000000     0.686700000000     0.843050000000   
Fe     0.323410000000     0.560500000000     0.670410000000   
Fe     0.163513333333     0.562440000000     0.573895000000   
P      0.144810000000     0.561710000000     0.940710000000   
P      0.190243333333     0.686315000000     0.553860000000   
P      0.083990000000     0.580075000000     0.651545000000   
O      0.173133333333     0.693200000000     0.995650000000   
O      0.041400000000     0.556000000000     0.634750000000   
O      0.182766666667     0.734200000000     0.588200000000   
O      0.164700000000     0.611050000000     0.919650000000   
O      0.262100000000     0.566850000000     0.688800000000   
O      0.290533333333     0.565900000000     0.592850000000   
O      0.112300000000     0.567000000000     0.608600000000   
O      0.138233333333     0.565350000000     0.500100000000   
O      0.172400000000     0.638850000000     0.579850000000   
O      0.170166666667     0.514800000000     0.925750000000   
O      0.225866666667     0.560150000000     0.553000000000   
O      0.197500000000     0.558950000000     0.650800000000   
O      0.099266666667     0.557550000000     0.912150000000   
H      0.100166666667     0.555400000000     0.879300000000   
O      0.238600000000     0.679950000000     0.552550000000   
H      0.249333333333     0.676050000000     0.583500000000   
O      0.077700000000     0.642450000000     0.648600000000   
H      0.060800000000     0.651300000000     0.669500000000   
O      0.099366666667     0.564200000000     0.707800000000   
C      0.235333333333     0.563000000000     0.649050000000   
C      0.251866666667     0.563300000000     0.593050000000   
Fe     0.176590000000     0.810500000000     0.579590000000   
Fe     0.003153333333     0.812440000000     0.676105000000   
P      0.021856666667     0.811710000000     0.809290000000   
P      0.309756666667     0.936315000000     0.696140000000   
P      0.082676666667     0.830075000000     0.598455000000   
O      0.326866666667     0.943200000000     0.754350000000   
O      0.125266666667     0.806000000000     0.615250000000   
O      0.317233333333     0.984200000000     0.661800000000   
O      0.001966666667     0.861050000000     0.830350000000   
O      0.237900000000     0.816850000000     0.561200000000   
O      0.209466666667     0.815900000000     0.657150000000   
O      0.054366666667     0.817000000000     0.641400000000   
O      0.028433333333     0.815350000000     0.749900000000   
O      0.327600000000     0.888850000000     0.670150000000   
O      0.329833333333     0.764800000000     0.824250000000   
O      0.274133333333     0.810150000000     0.697000000000   
O      0.302500000000     0.808950000000     0.599200000000   
O      0.067400000000     0.807550000000     0.837850000000   
H      0.066500000000     0.805400000000     0.870700000000   
O      0.261400000000     0.929950000000     0.697450000000   
H      0.250666666667     0.926050000000     0.666500000000   
O      0.088966666667     0.892450000000     0.601400000000   
H      0.105866666667     0.901300000000     0.580500000000   
O      0.067300000000     0.814200000000     0.542200000000   
C      0.264666666667     0.813000000000     0.600950000000   
C      0.248133333333     0.813300000000     0.656950000000   
Fe     0.343256666667     0.439500000000     0.329590000000   
Fe     0.503153333333     0.437560000000     0.426105000000   
P      0.521856666667     0.438290000000     0.059290000000   
P      0.476423333333     0.313685000000     0.446140000000   
P      0.582676666667     0.419925000000     0.348455000000   
O      0.493533333333     0.306800000000     0.004350000000   
O      0.625266666667     0.444000000000     0.365250000000   
O      0.483900000000     0.265800000000     0.411800000000   
O      0.501966666667     0.388950000000     0.080350000000   
O      0.404566666667     0.433150000000     0.311200000000   
O      0.376133333333     0.434100000000     0.407150000000   
O      0.554366666667     0.433000000000     0.391400000000   
O      0.528433333333     0.434650000000     0.499900000000   
O      0.494266666667     0.361150000000     0.420150000000   
O      0.496500000000     0.485200000000     0.074250000000   
O      0.440800000000     0.439850000000     0.447000000000   
O      0.469166666667     0.441050000000     0.349200000000   
O      0.567400000000     0.442450000000     0.087850000000   
H      0.566500000000     0.444600000000     0.120700000000   
O      0.428066666667     0.320050000000     0.447450000000   
H      0.417333333333     0.323950000000     0.416500000000   
O      0.588966666667     0.357550000000     0.351400000000   
H      0.605866666667     0.348700000000     0.330500000000   
O      0.567300000000     0.435800000000     0.292200000000   
C      0.431333333333     0.437000000000     0.350950000000   
C      0.414800000000     0.436700000000     0.406950000000   
Fe     0.490076666667     0.189500000000     0.420410000000   
Fe     0.663513333333     0.187560000000     0.323895000000   
P      0.644810000000     0.188290000000     0.190710000000   
P      0.356910000000     0.063685000000     0.303860000000   
P      0.583990000000     0.169925000000     0.401545000000   
O      0.339800000000     0.056800000000     0.245650000000   
O      0.541400000000     0.194000000000     0.384750000000   
O      0.349433333333     0.015800000000     0.338200000000   
O      0.664700000000     0.138950000000     0.169650000000   
O      0.428766666667     0.183150000000     0.438800000000   
O      0.457200000000     0.184100000000     0.342850000000   
O      0.612300000000     0.183000000000     0.358600000000   
O      0.638233333333     0.184650000000     0.250100000000   
O      0.339066666667     0.111150000000     0.329850000000   
O      0.336833333333     0.235200000000     0.175750000000   
O      0.392533333333     0.189850000000     0.303000000000   
O      0.364166666667     0.191050000000     0.400800000000   
O      0.599266666667     0.192450000000     0.162150000000   
H      0.600166666667     0.194600000000     0.129300000000   
O      0.405266666667     0.070050000000     0.302550000000   
H      0.416000000000     0.073950000000     0.333500000000   
O      0.577700000000     0.107550000000     0.398600000000   
H      0.560800000000     0.098700000000     0.419500000000   
O      0.599366666667     0.185800000000     0.457800000000   
C      0.402000000000     0.187000000000     0.399050000000   
C      0.418533333333     0.186700000000     0.343050000000   
Fe     0.656743333333     0.060500000000     0.170410000000   
Fe     0.496846666667     0.062440000000     0.073895000000   
P      0.478143333333     0.061710000000     0.440710000000   
P      0.523576666667     0.186315000000     0.053860000000   