SimulationType               MonteCarlo
NumberOfCycles               6000
NumberOfInitializationCycles 4000
PrintEvery                   1000
RestartFile                  no

Forcefield                   UFFTraPPE
CutOffVDW                    12.8

Framework               0
FrameworkName           ABEFUL_clean
UseChargesFromCIFFile   yes
UnitCells               2 2 3
ExternalTemperature     298
Movies                  yes
WriteMoviesEvery        10

Component 0 MoleculeName                 methane
            MoleculeDefinition           UFFTraPPE
            TranslationProbability       0.5
            ReinsertionProbability       0.5
            RotationProbability          0.5
            CreateNumberOfMolecules      1
