%BLOCK LATTICE_CART
ang    # angstrom units
  13.834000000000    0.000000000000     0.000000000000   
  0.000000000000     13.834000000000    0.000000000000   
  0.000000000000     0.000000000000     6.162000000000   
%ENDBLOCK LATTICE_CART

%BLOCK POSITIONS_FRAC
S      0.236490000000     0.300980000000     0.047712000000   
N      0.161595000000     0.325615000000     0.149460000000   
C      0.188985000000     0.279400000000     0.017240000000   
C      0.171555000000     0.236345000000     0.032780000000   
H      0.146050000000     0.219400000000     0.020340000000   
C      0.196985000000     0.220940000000     0.069820000000   
H      0.189900000000     0.192550000000     0.084640000000   
C      0.233180000000     0.251830000000     0.081860000000   
C      0.173450000000     0.304750000000     0.179720000000   
S      0.013510000000     0.449020000000     0.047712000000   
N      0.088405000000     0.424385000000     0.149460000000   
C      0.061015000000     0.470600000000     0.017240000000   
C      0.078445000000     0.013655000000     0.032780000000   
H      0.103950000000     0.030600000000     0.020340000000   
C      0.053015000000     0.029060000000     0.069820000000   
H      0.060100000000     0.057450000000     0.084640000000   
C      0.016820000000     0.498170000000     0.081860000000   
C      0.076550000000     0.445250000000     0.179720000000   
S      0.449020000000     0.236490000000     0.047712000000   
N      0.424385000000     0.161595000000     0.149460000000   
C      0.470600000000     0.188985000000     0.017240000000   
C      0.013655000000     0.171555000000     0.032780000000   
H      0.030600000000     0.146050000000     0.020340000000   
C      0.029060000000     0.196985000000     0.069820000000   
H      0.057450000000     0.189900000000     0.084640000000   
C      0.498170000000     0.233180000000     0.081860000000   
C      0.445250000000     0.173450000000     0.179720000000   
S      0.300980000000     0.013510000000     0.047712000000   
N      0.325615000000     0.088405000000     0.149460000000   
C      0.279400000000     0.061015000000     0.017240000000   
C      0.236345000000     0.078445000000     0.032780000000   
H      0.219400000000     0.103950000000     0.020340000000   
C      0.220940000000     0.053015000000     0.069820000000   
H      0.192550000000     0.060100000000     0.084640000000   
C      0.251830000000     0.016820000000     0.081860000000   
C      0.304750000000     0.076550000000     0.179720000000   
S      0.263510000000     0.199020000000     0.152288000000   
N      0.338405000000     0.174385000000     0.050540000000   
C      0.311015000000     0.220600000000     0.182760000000   
C      0.328445000000     0.263655000000     0.167220000000   
H      0.353950000000     0.280600000000     0.179660000000   
C      0.303015000000     0.279060000000     0.130180000000   
H      0.310100000000     0.307450000000     0.115360000000   
C      0.266820000000     0.248170000000     0.118140000000   
C      0.326550000000     0.195250000000     0.020280000000   
S      0.486490000000     0.050980000000     0.152288000000   
N      0.411595000000     0.075615000000     0.050540000000   
C      0.438985000000     0.029400000000     0.182760000000   
C      0.421555000000     0.486345000000     0.167220000000   
H      0.396050000000     0.469400000000     0.179660000000   
C      0.446985000000     0.470940000000     0.130180000000   
H      0.439900000000     0.442550000000     0.115360000000   
C      0.483180000000     0.001830000000     0.118140000000   
C      0.423450000000     0.054750000000     0.020280000000   
S      0.050980000000     0.263510000000     0.152288000000   
N      0.075615000000     0.338405000000     0.050540000000   
C      0.029400000000     0.311015000000     0.182760000000   
C      0.486345000000     0.328445000000     0.167220000000   
H      0.469400000000     0.353950000000     0.179660000000   
C      0.470940000000     0.303015000000     0.130180000000   
H      0.442550000000     0.310100000000     0.115360000000   
C      0.001830000000     0.266820000000     0.118140000000   
C      0.054750000000     0.326550000000     0.020280000000   
S      0.199020000000     0.486490000000     0.152288000000   
N      0.174385000000     0.411595000000     0.050540000000   
C      0.220600000000     0.438985000000     0.182760000000   
C      0.263655000000     0.421555000000     0.167220000000   
H      0.280600000000     0.396050000000     0.179660000000   
C      0.279060000000     0.446985000000     0.130180000000   
H      0.307450000000     0.439900000000     0.115360000000   
C      0.248170000000     0.483180000000     0.118140000000   
C      0.195250000000     0.423450000000     0.020280000000   
Ag     0.125000000000     0.375000000000     0.100000000000   
Ag     0.375000000000     0.125000000000     0.100000000000   
S      0.236490000000     0.300980000000     0.247712000000   
N      0.161595000000     0.325615000000     0.349460000000   
C      0.188985000000     0.279400000000     0.217240000000   
C      0.171555000000     0.236345000000     0.232780000000   
H      0.146050000000     0.219400000000     0.220340000000   
C      0.196985000000     0.220940000000     0.269820000000   
H      0.189900000000     0.192550000000     0.284640000000   
C      0.233180000000     0.251830000000     0.281860000000   
C      0.173450000000     0.304750000000     0.379720000000   
S      0.013510000000     0.449020000000     0.247712000000   
N      0.088405000000     0.424385000000     0.349460000000   
C      0.061015000000     0.470600000000     0.217240000000   
C      0.078445000000     0.013655000000     0.232780000000   
H      0.103950000000     0.030600000000     0.220340000000   
C      0.053015000000     0.029060000000     0.269820000000   
H      0.060100000000     0.057450000000     0.284640000000   
C      0.016820000000     0.498170000000     0.281860000000   
C      0.076550000000     0.445250000000     0.379720000000   
S      0.449020000000     0.236490000000     0.247712000000   
N      0.424385000000     0.161595000000     0.349460000000   
C      0.470600000000     0.188985000000     0.217240000000   
C      0.013655000000     0.171555000000     0.232780000000   
H      0.030600000000     0.146050000000     0.220340000000   
C      0.029060000000     0.196985000000     0.269820000000   
H      0.057450000000     0.189900000000     0.284640000000   
C      0.498170000000     0.233180000000     0.281860000000   
C      0.445250000000     0.173450000000     0.379720000000   
S      0.300980000000     0.013510000000     0.247712000000   
N      0.325615000000     0.088405000000     0.349460000000   
C      0.279400000000     0.061015000000     0.217240000000   
C      0.236345000000     0.078445000000     0.232780000000   
H      0.219400000000     0.103950000000     0.220340000000   
C      0.220940000000     0.053015000000     0.269820000000   
H      0.192550000000     0.060100000000     0.284640000000   
C      0.251830000000     0.016820000000     0.281860000000   
C      0.304750000000     0.076550000000     0.379720000000   
S      0.263510000000     0.199020000000     0.352288000000   
N      0.338405000000     0.174385000000     0.250540000000   
C      0.311015000000     0.220600000000     0.382760000000   
C      0.328445000000     0.263655000000     0.367220000000   
H      0.353950000000     0.280600000000     0.379660000000   
C      0.303015000000     0.279060000000     0.330180000000   
H      0.310100000000     0.307450000000     0.315360000000   
C      0.266820000000     0.248170000000     0.318140000000   
C      0.326550000000     0.195250000000     0.220280000000   
S      0.486490000000     0.050980000000     0.352288000000   
N      0.411595000000     0.075615000000     0.250540000000   
C      0.438985000000     0.029400000000     0.382760000000   
C      0.421555000000     0.486345000000     0.367220000000   
H      0.396050000000     0.469400000000     0.379660000000   
C      0.446985000000     0.470940000000     0.330180000000   
H      0.439900000000     0.442550000000     0.315360000000   
C      0.483180000000     0.001830000000     0.318140000000   
C      0.423450000000     0.054750000000     0.220280000000   
S      0.050980000000     0.263510000000     0.352288000000   
N      0.075615000000     0.338405000000     0.250540000000   
C      0.029400000000     0.311015000000     0.382760000000   
C      0.486345000000     0.328445000000     0.367220000000   
H      0.469400000000     0.353950000000     0.379660000000   
C      0.470940000000     0.303015000000     0.330180000000   
H      0.442550000000     0.310100000000     0.315360000000   
C      0.001830000000     0.266820000000     0.318140000000   
C      0.054750000000     0.326550000000     0.220280000000   
S      0.199020000000     0.486490000000     0.352288000000   
N      0.174385000000     0.411595000000     0.250540000000   
C      0.220600000000     0.438985000000     0.382760000000   
C      0.263655000000     0.421555000000     0.367220000000   
H      0.280600000000     0.396050000000     0.379660000000   
C      0.279060000000     0.446985000000     0.330180000000   
H      0.307450000000     0.439900000000     0.315360000000   
C      0.248170000000     0.483180000000     0.318140000000   
C      0.195250000000     0.423450000000     0.220280000000   
Ag     0.125000000000     0.375000000000     0.300000000000   
Ag     0.375000000000     0.125000000000     0.300000000000   
S      0.236490000000     0.300980000000     0.447712000000   
N      0.161595000000     0.325615000000     0.549460000000   
C      0.188985000000     0.279400000000     0.417240000000   
C      0.171555000000     0.236345000000     0.432780000000   
H      0.146050000000     0.219400000000     0.420340000000   
C      0.196985000000     0.220940000000     0.469820000000   
H      0.189900000000     0.192550000000     0.484640000000   
C      0.233180000000     0.251830000000     0.481860000000   
C      0.173450000000     0.304750000000     0.579720000000   
S      0.013510000000     0.449020000000     0.447712000000   
N      0.088405000000     0.424385000000     0.549460000000   
C      0.061015000000     0.470600000000     0.417240000000   
C      0.078445000000     0.013655000000     0.432780000000   
H      0.103950000000     0.030600000000     0.420340000000   
C      0.053015000000     0.029060000000     0.469820000000   
H      0.060100000000     0.057450000000     0.484640000000   
C      0.016820000000     0.498170000000     0.481860000000   
C      0.076550000000     0.445250000000     0.579720000000   
S      0.449020000000     0.236490000000     0.447712000000   
N      0.424385000000     0.161595000000     0.549460000000   
C      0.470600000000     0.188985000000     0.417240000000   
C      0.013655000000     0.171555000000     0.432780000000   
H      0.030600000000     0.146050000000     0.420340000000   
C      0.029060000000     0.196985000000     0.469820000000   
H      0.057450000000     0.189900000000     0.484640000000   
C      0.498170000000     0.233180000000     0.481860000000   
C      0.445250000000     0.173450000000     0.579720000000   
S      0.300980000000     0.013510000000     0.447712000000   
N      0.325615000000     0.088405000000     0.549460000000   
C      0.279400000000     0.061015000000     0.417240000000   
C      0.236345000000     0.078445000000     0.432780000000   
H      0.219400000000     0.103950000000     0.420340000000   
C      0.220940000000     0.053015000000     0.469820000000   
H      0.192550000000     0.060100000000     0.484640000000   
C      0.251830000000     0.016820000000     0.481860000000   
C      0.304750000000     0.076550000000     0.579720000000   
S      0.263510000000     0.199020000000     0.552288000000   
N      0.338405000000     0.174385000000     0.450540000000   
C      0.311015000000     0.220600000000     0.582760000000   
C      0.328445000000     0.263655000000     0.567220000000   
H      0.353950000000     0.280600000000     0.579660000000   
C      0.303015000000     0.279060000000     0.530180000000   
H      0.310100000000     0.307450000000     0.515360000000   
C      0.266820000000     0.248170000000     0.518140000000   
C      0.326550000000     0.195250000000     0.420280000000   
S      0.486490000000     0.050980000000     0.552288000000   
N      0.411595000000     0.075615000000     0.450540000000   
C      0.438985000000     0.029400000000     0.582760000000   
C      0.421555000000     0.486345000000     0.567220000000   
H      0.396050000000     0.469400000000     0.579660000000   
C      0.446985000000     0.470940000000     0.530180000000   
H      0.439900000000     0.442550000000     0.515360000000   
C      0.483180000000     0.001830000000     0.518140000000   
C      0.423450000000     0.054750000000     0.420280000000   
S      0.050980000000     0.263510000000     0.552288000000   
N      0.075615000000     0.338405000000     0.450540000000   
C      0.029400000000     0.311015000000     0.582760000000   
C      0.486345000000     0.328445000000     0.567220000000   
H      0.469400000000     0.353950000000     0.579660000000   
C      0.470940000000     0.303015000000     0.530180000000   
H      0.442550000000     0.310100000000     0.515360000000   
C      0.001830000000     0.266820000000     0.518140000000   
C      0.054750000000     0.326550000000     0.420280000000   
S      0.199020000000     0.486490000000     0.552288000000   
N      0.174385000000     0.411595000000     0.450540000000   
C      0.220600000000     0.438985000000     0.582760000000   
C      0.263655000000     0.421555000000     0.567220000000   
H      0.280600000000     0.396050000000     0.579660000000   
C      0.279060000000     0.446985000000     0.530180000000   
H      0.307450000000     0.439900000000     0.515360000000   
C      0.248170000000     0.483180000000     0.518140000000   
C      0.195250000000     0.423450000000     0.420280000000   
Ag     0.125000000000     0.375000000000     0.500000000000   
Ag     0.375000000000     0.125000000000     0.500000000000   
S      0.236490000000     0.300980000000     0.647712000000   
N      0.161595000000     0.325615000000     0.749460000000   
C      0.188985000000     0.279400000000     0.617240000000   
C      0.171555000000     0.236345000000     0.632780000000   
H      0.146050000000     0.219400000000     0.620340000000   
C      0.196985000000     0.220940000000     0.669820000000   
H      0.189900000000     0.192550000000     0.684640000000   
C      0.233180000000     0.251830000000     0.681860000000   
C      0.173450000000     0.304750000000     0.779720000000   
S      0.013510000000     0.449020000000     0.647712000000   
N      0.088405000000     0.424385000000     0.749460000000   
C      0.061015000000     0.470600000000     0.617240000000   
C      0.078445000000     0.013655000000     0.632780000000   
H      0.103950000000     0.030600000000     0.620340000000   
C      0.053015000000     0.029060000000     0.669820000000   
H      0.060100000000     0.057450000000     0.684640000000   
C      0.016820000000     0.498170000000     0.681860000000   
C      0.076550000000     0.445250000000     0.779720000000   
S      0.449020000000     0.236490000000     0.647712000000   
N      0.424385000000     0.161595000000     0.749460000000   
C      0.470600000000     0.188985000000     0.617240000000   
C      0.013655000000     0.171555000000     0.632780000000   
H      0.030600000000     0.146050000000     0.620340000000   
C      0.029060000000     0.196985000000     0.669820000000   
H      0.057450000000     0.189900000000     0.684640000000   
C      0.498170000000     0.233180000000     0.681860000000   
C      0.445250000000     0.173450000000     0.779720000000   
S      0.300980000000     0.013510000000     0.647712000000   
N      0.325615000000     0.088405000000     0.749460000000   
C      0.279400000000     0.061015000000     0.617240000000   
C      0.236345000000     0.078445000000     0.632780000000   
H      0.219400000000     0.103950000000     0.620340000000   
C      0.220940000000     0.053015000000     0.669820000000   
H      0.192550000000     0.060100000000     0.684640000000   
C      0.251830000000     0.016820000000     0.681860000000   
C      0.304750000000     0.076550000000     0.779720000000   
S      0.263510000000     0.199020000000     0.752288000000   
N      0.338405000000     0.174385000000     0.650540000000   
C      0.311015000000     0.220600000000     0.782760000000   
C      0.328445000000     0.263655000000     0.767220000000   
H      0.353950000000     0.280600000000     0.779660000000   
C      0.303015000000     0.279060000000     0.730180000000   
H      0.310100000000     0.307450000000     0.715360000000   
C      0.266820000000     0.248170000000     0.718140000000   
C      0.326550000000     0.195250000000     0.620280000000   
S      0.486490000000     0.050980000000     0.752288000000   
N      0.411595000000     0.075615000000     0.650540000000   
C      0.438985000000     0.029400000000     0.782760000000   
C      0.421555000000     0.486345000000     0.767220000000   
H      0.396050000000     0.469400000000     0.779660000000   
C      0.446985000000     0.470940000000     0.730180000000   
H      0.439900000000     0.442550000000     0.715360000000   
C      0.483180000000     0.001830000000     0.718140000000   
C      0.423450000000     0.054750000000     0.620280000000   
S      0.050980000000     0.263510000000     0.752288000000   
N      0.075615000000     0.338405000000     0.650540000000   
C      0.029400000000     0.311015000000     0.782760000000   
C      0.486345000000     0.328445000000     0.767220000000   
H      0.469400000000     0.353950000000     0.779660000000   
C      0.470940000000     0.303015000000     0.730180000000   
H      0.442550000000     0.310100000000     0.715360000000   
C      0.001830000000     0.266820000000     0.718140000000   
C      0.054750000000     0.326550000000     0.620280000000   
S      0.199020000000     0.486490000000     0.752288000000   
N      0.174385000000     0.411595000000     0.650540000000   
C      0.220600000000     0.438985000000     0.782760000000   
C      0.263655000000     0.421555000000     0.767220000000   
H      0.280600000000     0.396050000000     0.779660000000   
C      0.279060000000     0.446985000000     0.730180000000   
H      0.307450000000     0.439900000000     0.715360000000   
C      0.248170000000     0.483180000000     0.718140000000   
C      0.195250000000     0.423450000000     0.620280000000   
Ag     0.125000000000     0.375000000000     0.700000000000   
Ag     0.375000000000     0.125000000000     0.700000000000   
S      0.236490000000     0.300980000000     0.847712000000   
N      0.161595000000     0.325615000000     0.949460000000   
C      0.188985000000     0.279400000000     0.817240000000   
C      0.171555000000     0.236345000000     0.832780000000   
H      0.146050000000     0.219400000000     0.820340000000   
C      0.196985000000     0.220940000000     0.869820000000   
H      0.189900000000     0.192550000000     0.884640000000   
C      0.233180000000     0.251830000000     0.881860000000   
C      0.173450000000     0.304750000000     0.979720000000   
S      0.013510000000     0.449020000000     0.847712000000   
N      0.088405000000     0.424385000000     0.949460000000   
C      0.061015000000     0.470600000000     0.817240000000   
C      0.078445000000     0.013655000000     0.832780000000   
H      0.103950000000     0.030600000000     0.820340000000   
C      0.053015000000     0.029060000000     0.869820000000   
H      0.060100000000     0.057450000000     0.884640000000   
C      0.016820000000     0.498170000000     0.881860000000   
C      0.076550000000     0.445250000000     0.979720000000   
S      0.449020000000     0.236490000000     0.847712000000   
N      0.424385000000     0.161595000000     0.949460000000   
C      0.470600000000     0.188985000000     0.817240000000   
C      0.013655000000     0.171555000000     0.832780000000   
H      0.030600000000     0.146050000000     0.820340000000   
C      0.029060000000     0.196985000000     0.869820000000   
H      0.057450000000     0.189900000000     0.884640000000   
C      0.498170000000     0.233180000000     0.881860000000   
C      0.445250000000     0.173450000000     0.979720000000   
S      0.300980000000     0.013510000000     0.847712000000   
N      0.325615000000     0.088405000000     0.949460000000   
C      0.279400000000     0.061015000000     0.817240000000   
C      0.236345000000     0.078445000000     0.832780000000   
H      0.219400000000     0.103950000000     0.820340000000   
C      0.220940000000     0.053015000000     0.869820000000   
H      0.192550000000     0.060100000000     0.884640000000   
C      0.251830000000     0.016820000000     0.881860000000   
C      0.304750000000     0.076550000000     0.979720000000   
S      0.263510000000     0.199020000000     0.952288000000   
N      0.338405000000     0.174385000000     0.850540000000   
C      0.311015000000     0.220600000000     0.982760000000   
C      0.328445000000     0.263655000000     0.967220000000   
H      0.353950000000     0.280600000000     0.979660000000   
C      0.303015000000     0.279060000000     0.930180000000   
H      0.310100000000     0.307450000000     0.915360000000   
C      0.266820000000     0.248170000000     0.918140000000   
C      0.326550000000     0.195250000000     0.820280000000   
S      0.486490000000     0.050980000000     0.952288000000   
N      0.411595000000     0.075615000000     0.850540000000   
C      0.438985000000     0.029400000000     0.982760000000   
C      0.421555000000     0.486345000000     0.967220000000   
H      0.396050000000     0.469400000000     0.979660000000   
C      0.446985000000     0.470940000000     0.930180000000   
H      0.439900000000     0.442550000000     0.915360000000   
C      0.483180000000     0.001830000000     0.918140000000   
C      0.423450000000     0.054750000000     0.820280000000   
S      0.050980000000     0.263510000000     0.952288000000   
N      0.075615000000     0.338405000000     0.850540000000   
C      0.029400000000     0.311015000000     0.982760000000   
C      0.486345000000     0.328445000000     0.967220000000   
H      0.469400000000     0.353950000000     0.979660000000   
C      0.470940000000     0.303015000000     0.930180000000   
H      0.442550000000     0.310100000000     0.915360000000   
C      0.001830000000     0.266820000000     0.918140000000   
C      0.054750000000     0.326550000000     0.820280000000   
S      0.199020000000     0.486490000000     0.952288000000   
N      0.174385000000     0.411595000000     0.850540000000   
C      0.220600000000     0.438985000000     0.982760000000   
C      0.263655000000     0.421555000000     0.967220000000   
H      0.280600000000     0.396050000000     0.979660000000   
C      0.279060000000     0.446985000000     0.930180000000   
H      0.307450000000     0.439900000000     0.915360000000   
C      0.248170000000     0.483180000000     0.918140000000   
C      0.195250000000     0.423450000000     0.820280000000   
Ag     0.125000000000     0.375000000000     0.900000000000   
Ag     0.375000000000     0.125000000000     0.900000000000   
S      0.236490000000     0.800980000000     0.047712000000   
N      0.161595000000     0.825615000000     0.149460000000   
C      0.188985000000     0.779400000000     0.017240000000   
C      0.171555000000     0.736345000000     0.032780000000   
H      0.146050000000     0.719400000000     0.020340000000   
C      0.196985000000     0.720940000000     0.069820000000   
H      0.189900000000     0.692550000000     0.084640000000   
C      0.233180000000     0.751830000000     0.081860000000   
C      0.173450000000     0.804750000000     0.179720000000   
S      0.013510000000     0.949020000000     0.047712000000   
N      0.088405000000     0.924385000000     0.149460000000   
C      0.061015000000     0.970600000000     0.017240000000   
C      0.078445000000     0.513655000000     0.032780000000   
H      0.103950000000     0.530600000000     0.020340000000   
C      0.053015000000     0.529060000000     0.069820000000   
H      0.060100000000     0.557450000000     0.084640000000   
C      0.016820000000     0.998170000000     0.081860000000   
C      0.076550000000     0.945250000000     0.179720000000   
S      0.449020000000     0.736490000000     0.047712000000   
N      0.424385000000     0.661595000000     0.149460000000   
C      0.470600000000     0.688985000000     0.017240000000   
C      0.013655000000     0.671555000000     0.032780000000   
H      0.030600000000     0.646050000000     0.020340000000   
C      0.029060000000     0.696985000000     0.069820000000   
H      0.057450000000     0.689900000000     0.084640000000   
C      0.498170000000     0.733180000000     0.081860000000   
C      0.445250000000     0.673450000000     0.179720000000   
S      0.300980000000     0.513510000000     0.047712000000   
N      0.325615000000     0.588405000000     0.149460000000   
C      0.279400000000     0.561015000000     0.017240000000   
C      0.236345000000     0.578445000000     0.032780000000   
H      0.219400000000     0.603950000000     0.020340000000   
C      0.220940000000     0.553015000000     0.069820000000   
H      0.192550000000     0.560100000000     0.084640000000   
C      0.251830000000     0.516820000000     0.081860000000   
C      0.304750000000     0.576550000000     0.179720000000   
S      0.263510000000     0.699020000000     0.152288000000   
N      0.338405000000     0.674385000000     0.050540000000   
C      0.311015000000     0.720600000000     0.182760000000   
C      0.328445000000     0.763655000000     0.167220000000   
H      0.353950000000     0.780600000000     0.179660000000   
C      0.303015000000     0.779060000000     0.130180000000   
H      0.310100000000     0.807450000000     0.115360000000   
C      0.266820000000     0.748170000000     0.118140000000   
C      0.326550000000     0.695250000000     0.020280000000   
S      0.486490000000     0.550980000000     0.152288000000   
N      0.411595000000     0.575615000000     0.050540000000   
C      0.438985000000     0.529400000000     0.182760000000   
C      0.421555000000     0.986345000000     0.167220000000   
H      0.396050000000     0.969400000000     0.179660000000   
C      0.446985000000     0.970940000000     0.130180000000   
H      0.439900000000     0.942550000000     0.115360000000   
C      0.483180000000     0.501830000000     0.118140000000   
C      0.423450000000     0.554750000000     0.020280000000   
S      0.050980000000     0.763510000000     0.152288000000   
N      0.075615000000     0.838405000000     0.050540000000   
C      0.029400000000     0.811015000000     0.182760000000   
C      0.486345000000     0.828445000000     0.167220000000   
H      0.469400000000     0.853950000000     0.179660000000   
C      0.470940000000     0.803015000000     0.130180000000   
H      0.442550000000     0.810100000000     0.115360000000   
C      0.001830000000     0.766820000000     0.118140000000   
C      0.054750000000     0.826550000000     0.020280000000   
S      0.199020000000     0.986490000000     0.152288000000   
N      0.174385000000     0.911595000000     0.050540000000   
C      0.220600000000     0.938985000000     0.182760000000   
C      0.263655000000     0.921555000000     0.167220000000   
H      0.280600000000     0.896050000000     0.179660000000   
C      0.279060000000     0.946985000000     0.130180000000   
H      0.307450000000     0.939900000000     0.115360000000   
C      0.248170000000     0.983180000000     0.118140000000   
C      0.195250000000     0.923450000000     0.020280000000   
Ag     0.125000000000     0.875000000000     0.100000000000   
Ag     0.375000000000     0.625000000000     0.100000000000   
S      0.236490000000     0.800980000000     0.247712000000   
N      0.161595000000     0.825615000000     0.349460000000   
C      0.188985000000     0.779400000000     0.217240000000   
C      0.171555000000     0.736345000000     0.232780000000   
H      0.146050000000     0.719400000000     0.220340000000   
C      0.196985000000     0.720940000000     0.269820000000   
H      0.189900000000     0.692550000000     0.284640000000   
C      0.233180000000     0.751830000000     0.281860000000   
C      0.173450000000     0.804750000000     0.379720000000   
S      0.013510000000     0.949020000000     0.247712000000   
N      0.088405000000     0.924385000000     0.349460000000   
C      0.061015000000     0.970600000000     0.217240000000   
C      0.078445000000     0.513655000000     0.232780000000   
H      0.103950000000     0.530600000000     0.220340000000   
C      0.053015000000     0.529060000000     0.269820000000   
H      0.060100000000     0.557450000000     0.284640000000   
C      0.016820000000     0.998170000000     0.281860000000   
C      0.076550000000     0.945250000000     0.379720000000   
S      0.449020000000     0.736490000000     0.247712000000   
N      0.424385000000     0.661595000000     0.349460000000   
C      0.470600000000     0.688985000000     0.217240000000   
C      0.013655000000     0.671555000000     0.232780000000   
H      0.030600000000     0.646050000000     0.220340000000   
C      0.029060000000     0.696985000000     0.269820000000   
H      0.057450000000     0.689900000000     0.284640000000   
C      0.498170000000     0.733180000000     0.281860000000   
C      0.445250000000     0.673450000000     0.379720000000   
S      0.300980000000     0.513510000000     0.247712000000   