%BLOCK LATTICE_CART
ang    # angstrom units
  14.774000000000    0.000000000000     0.000000000000   
  0.000000000000     15.653000000000    0.000000000000   
  0.000000000000     0.000000000000     16.871000000000  
%ENDBLOCK LATTICE_CART

%BLOCK POSITIONS_FRAC
Zn     0.294030000000     0.014195000000     0.118755000000   
Zn     0.173130000000     0.487660000000     0.354865000000   
Zn     0.044030000000     0.235805000000     0.381245000000   
Zn     0.423130000000     0.262340000000     0.145135000000   
H      0.251450000000     0.424300000000     0.332450000000   
H      0.080050000000     0.264150000000     0.046500000000   
H      0.271550000000     0.312450000000     0.057450000000   
H      0.131700000000     0.104150000000     0.442500000000   
H      0.190100000000     0.309400000000     0.008400000000   
H      0.316300000000     0.373350000000     0.440600000000   
H      0.233750000000     0.309600000000     0.416200000000   
H      0.383650000000     0.285700000000     0.485400000000   
H      0.463450000000     0.294950000000     0.406300000000   
H      0.098150000000     0.104750000000     0.366900000000   
H      0.463950000000     0.471600000000     0.051800000000   
H      0.116250000000     0.407000000000     0.322650000000   
H      0.213450000000     0.455050000000     0.093700000000   
H      0.050300000000     0.424350000000     0.008600000000   
H      0.301550000000     0.421200000000     0.069250000000   
H      0.068850000000     0.281000000000     0.482100000000   
H      0.171700000000     0.366500000000     0.048350000000   
H      0.321350000000     0.412300000000     0.370250000000   
H      0.021550000000     0.437550000000     0.442550000000   
H      0.051550000000     0.328800000000     0.430750000000   
H      0.318850000000     0.469000000000     0.017900000000   
H      0.181800000000     0.444050000000     0.454100000000   
H      0.196300000000     0.022700000000     0.496600000000   
H      0.301200000000     0.374850000000     0.142150000000   
H      0.448150000000     0.364350000000     0.085650000000   
H      0.446300000000     0.227300000000     0.003400000000   
H      0.141500000000     0.437550000000     0.053200000000   
H      0.355200000000     0.449500000000     0.167550000000   
H      0.180300000000     0.328800000000     0.355150000000   
H      0.133650000000     0.464300000000     0.014600000000   
H      0.381700000000     0.145850000000     0.057500000000   
H      0.071350000000     0.337700000000     0.129750000000   
H      0.255600000000     0.352250000000     0.081650000000   
H      0.349750000000     0.280350000000     0.079000000000   
H      0.099750000000     0.469650000000     0.421000000000   
H      0.440100000000     0.440600000000     0.491600000000   
H      0.330050000000     0.485850000000     0.453500000000   
H      0.005600000000     0.397750000000     0.418350000000   
H      0.495550000000     0.251900000000     0.074300000000   
H      0.300300000000     0.325650000000     0.491400000000   
H      0.469500000000     0.331000000000     0.286100000000   
H      0.431800000000     0.305950000000     0.045900000000   
H      0.348150000000     0.145250000000     0.133100000000   
H      0.381900000000     0.499350000000     0.063250000000   
H      0.108150000000     0.298800000000     0.069250000000   
H      0.479750000000     0.247300000000     0.265500000000   
H      0.131900000000     0.250650000000     0.436750000000   
H      0.391500000000     0.312450000000     0.446800000000   
H      0.257950000000     0.054900000000     0.034450000000   
H      0.483750000000     0.440400000000     0.083800000000   
H      0.430300000000     0.421200000000     0.144850000000   
H      0.051200000000     0.375150000000     0.357850000000   
H      0.198150000000     0.385650000000     0.414350000000   
H      0.105200000000     0.300500000000     0.332450000000   
H      0.007950000000     0.195100000000     0.465550000000   
H      0.066300000000     0.376650000000     0.059400000000   
H      0.421700000000     0.383500000000     0.451650000000   
H      0.219500000000     0.419000000000     0.213900000000   
H      0.366250000000     0.343000000000     0.177350000000   
H      0.229750000000     0.002700000000     0.234500000000   
H      0.245550000000     0.498100000000     0.425700000000   
H      0.001450000000     0.325700000000     0.167550000000   
H      0.213950000000     0.278400000000     0.448200000000   
H      0.358150000000     0.451200000000     0.430750000000   
C      0.127750000000     0.093900000000     0.416850000000   
C      0.426350000000     0.379350000000     0.478600000000   
C      0.069100000000     0.397750000000     0.366450000000   
C      0.064350000000     0.309800000000     0.487550000000   
C      0.421900000000     0.338850000000     0.495150000000   
C      0.046800000000     0.381400000000     0.465000000000   
C      0.161550000000     0.310000000000     0.368750000000   
C      0.207450000000     0.013000000000     0.020750000000   
C      0.078650000000     0.292450000000     0.058150000000   
C      0.346250000000     0.300150000000     0.099300000000   
C      0.411550000000     0.440000000000     0.131250000000   
C      0.195000000000     0.464850000000     0.276400000000   
C      0.228450000000     0.447250000000     0.210600000000   
C      0.317900000000     0.425150000000     0.474100000000   
C      0.102750000000     0.116200000000     0.392000000000   
C      0.081200000000     0.158300000000     0.400650000000   
C      0.119750000000     0.293950000000     0.356150000000   
C      0.219900000000     0.474800000000     0.238300000000   
C      0.047900000000     0.319200000000     0.123250000000   
C      0.302900000000     0.354600000000     0.497000000000   
C      0.195850000000     0.340500000000     0.457950000000   
C      0.352750000000     0.133800000000     0.108000000000   
C      0.400000000000     0.197250000000     0.094300000000   
C      0.467100000000     0.274200000000     0.425750000000   
C      0.457450000000     0.237000000000     0.479250000000   
C      0.469900000000     0.275200000000     0.261700000000   
C      0.437850000000     0.413600000000     0.002900000000   
C      0.478450000000     0.302750000000     0.289400000000   
C      0.303800000000     0.411400000000     0.043300000000   
C      0.241500000000     0.030800000000     0.041600000000   
C      0.296800000000     0.368600000000     0.035000000000   
C      0.105050000000     0.415950000000     0.347050000000   
C      0.171900000000     0.411150000000     0.004850000000   
C      0.406150000000     0.301550000000     0.470450000000   
C      0.252300000000     0.460000000000     0.173550000000   
C      0.442900000000     0.368200000000     0.058700000000   
C      0.491500000000     0.219200000000     0.458400000000   
C      0.053800000000     0.338600000000     0.456700000000   
C      0.314350000000     0.440200000000     0.012450000000   
C      0.217100000000     0.475800000000     0.074250000000   
C      0.255850000000     0.478300000000     0.407250000000   
C      0.005850000000     0.271700000000     0.092750000000   
C      0.187850000000     0.336400000000     0.497100000000   
C      0.134200000000     0.266600000000     0.413600000000   
C      0.150000000000     0.052750000000     0.405700000000   
C      0.319100000000     0.352250000000     0.133550000000   
C      0.259300000000     0.437650000000     0.356100000000   
C      0.445850000000     0.409500000000     0.042050000000   
C      0.002300000000     0.290000000000     0.326450000000   
C      0.328650000000     0.457550000000     0.441850000000   
C      0.207050000000     0.303000000000     0.431800000000   
C      0.067900000000     0.324850000000     0.025900000000   
C      0.297900000000     0.430800000000     0.376750000000   
C      0.445000000000     0.285150000000     0.223600000000   
C      0.182150000000     0.416750000000     0.465000000000   
C      0.432150000000     0.333250000000     0.035000000000   
C      0.369750000000     0.456050000000     0.143850000000   
C      0.384200000000     0.483400000000     0.086400000000   
C      0.156150000000     0.448450000000     0.029550000000   
C      0.192900000000     0.381800000000     0.441300000000   
C      0.377750000000     0.156100000000     0.083150000000   
C      0.063000000000     0.366650000000     0.033600000000   
C      0.176350000000     0.370650000000     0.021400000000   
C      0.457050000000     0.447000000000     0.068200000000   
C      0.313000000000     0.383350000000     0.466400000000   
C      0.281550000000     0.339300000000     0.068800000000   
C      0.052900000000     0.395400000000     0.003000000000   
C      0.009300000000     0.312350000000     0.143900000000   
C      0.331200000000     0.091700000000     0.099350000000   
C      0.355050000000     0.334050000000     0.152950000000   
C      0.096250000000     0.449850000000     0.400700000000   
C      0.031550000000     0.410700000000     0.431200000000   
N      0.065350000000     0.419950000000     0.401050000000   
N      0.233700000000     0.467350000000     0.375550000000   
N      0.169150000000     0.292500000000     0.405000000000   
N      0.353900000000     0.483500000000     0.114550000000   
N      0.122000000000     0.449250000000     0.368800000000   
N      0.247550000000     0.006400000000     0.075900000000   
N      0.483700000000     0.282650000000     0.124450000000   
N      0.315350000000     0.330050000000     0.098950000000   
N      0.192100000000     0.477900000000     0.041450000000   
N      0.442100000000     0.272100000000     0.458550000000   
N      0.103900000000     0.266500000000     0.385450000000   
N      0.045150000000     0.292450000000     0.089850000000   
N      0.295150000000     0.457550000000     0.410150000000   
N      0.497550000000     0.243600000000     0.424100000000   
N      0.419150000000     0.457500000000     0.095000000000   
N      0.372000000000     0.300750000000     0.131200000000   
O      0.433800000000     0.323300000000     0.215500000000   
O      0.152950000000     0.045050000000     0.368700000000   
O      0.017700000000     0.252200000000     0.329250000000   
O      0.334750000000     0.074200000000     0.065850000000   
O      0.411950000000     0.222850000000     0.068250000000   
O      0.161950000000     0.027150000000     0.431750000000   
O      0.183800000000     0.426700000000     0.284500000000   
O      0.084750000000     0.175800000000     0.434150000000   
O      0.062150000000     0.175950000000     0.371450000000   
O      0.005400000000     0.318100000000     0.352850000000   
O      0.312150000000     0.074050000000     0.128550000000   
O      0.402950000000     0.204950000000     0.131300000000   
O      0.438350000000     0.253650000000     0.201250000000   
O      0.267700000000     0.497800000000     0.170750000000   
O      0.255400000000     0.431900000000     0.147150000000   
O      0.188350000000     0.496350000000     0.298750000000   
Zn     0.076870000000     0.012340000000     0.104865000000   
Zn     0.455970000000     0.485805000000     0.368755000000   
Zn     0.326870000000     0.237660000000     0.395135000000   
Zn     0.205970000000     0.264195000000     0.131245000000   
H      0.116350000000     0.035700000000     0.264600000000   
H      0.368100000000     0.000650000000     0.313250000000   
H      0.401850000000     0.354750000000     0.383100000000   
H      0.428650000000     0.087700000000     0.120250000000   
H      0.366350000000     0.214300000000     0.235400000000   
H      0.319700000000     0.078800000000     0.394850000000   
H      0.498550000000     0.075700000000     0.082450000000   
H      0.358500000000     0.187550000000     0.196800000000   
H      0.248550000000     0.174300000000     0.417550000000   
H      0.068200000000     0.055950000000     0.204100000000   
H      0.118100000000     0.249350000000     0.186750000000   
H      0.199700000000     0.075650000000     0.258600000000   
H      0.198450000000     0.171200000000     0.180750000000   
H      0.016250000000     0.190400000000     0.166200000000   
H      0.301850000000     0.135650000000     0.335650000000   
H      0.151850000000     0.395250000000     0.116900000000   
H      0.144800000000     0.199500000000     0.082450000000   
H      0.036050000000     0.221600000000     0.198200000000   
H      0.383750000000     0.157000000000     0.427350000000   
H      0.036550000000     0.044950000000     0.343700000000   
H      0.078300000000     0.133500000000     0.298350000000   
H      0.244400000000     0.102250000000     0.168350000000   
H      0.030500000000     0.081000000000     0.463900000000   
H      0.254450000000     0.248100000000     0.324300000000   
H      0.400250000000     0.219650000000     0.329000000000   
H      0.108500000000     0.062450000000     0.303200000000   
H      0.150250000000     0.030350000000     0.171000000000   
H      0.391850000000     0.048800000000     0.180750000000   
H      0.478450000000     0.187550000000     0.307450000000   
H      0.133750000000     0.093000000000     0.072650000000   
H      0.394800000000     0.050500000000     0.417550000000   
H      0.280500000000     0.169000000000     0.036100000000   
H      0.368300000000     0.354150000000     0.307500000000   
H      0.449700000000     0.174350000000     0.241400000000   
H      0.492050000000     0.445100000000     0.284450000000   
H      0.228450000000     0.062450000000     0.192550000000   
H      0.286550000000     0.205050000000     0.156300000000   
H      0.069700000000     0.171200000000     0.105150000000   
H      0.431150000000     0.031000000000     0.267900000000   
H      0.328300000000     0.116500000000     0.201650000000   
H      0.004450000000     0.001900000000     0.175700000000   
H      0.266250000000     0.059600000000     0.333800000000   
H      0.198800000000     0.124850000000     0.107850000000   
H      0.494400000000     0.147750000000     0.331650000000   
H      0.020250000000     0.497300000000     0.484500000000   
H      0.448800000000     0.125150000000     0.392150000000   
H      0.433700000000     0.126650000000     0.190600000000   
H      0.242050000000     0.304900000000     0.215550000000   
H      0.141850000000     0.201200000000     0.319250000000   
H      0.448450000000     0.078800000000     0.319250000000   
H      0.169950000000     0.235850000000     0.296500000000   
H      0.051850000000     0.114350000000     0.164350000000   
H      0.286050000000     0.028400000000     0.301800000000   
H      0.053700000000     0.477300000000     0.246600000000   
H      0.419950000000     0.014150000000     0.203500000000   
H      0.183700000000     0.123350000000     0.309400000000   
H      0.118300000000     0.395850000000     0.192500000000   
H      0.181150000000     0.219000000000     0.232100000000   
H      0.270250000000     0.252700000000     0.015500000000   
H      0.178650000000     0.162300000000     0.379750000000   
H      0.303700000000     0.272700000000     0.253400000000   
H      0.318200000000     0.194050000000     0.295900000000   
H      0.059900000000     0.190600000000     0.258400000000   
H      0.309900000000     0.059400000000     0.241600000000   
C      0.338450000000     0.060000000000     0.381250000000   
C      0.153750000000     0.050150000000     0.150700000000   
C      0.258500000000     0.280800000000     0.208400000000   
C      0.008500000000     0.469200000000     0.291600000000   
C      0.494150000000     0.021700000000     0.157250000000   
C      0.078100000000     0.088850000000     0.254850000000   
C      0.180900000000     0.102250000000     0.116450000000   
C      0.202100000000     0.180800000000     0.373250000000   
C      0.380250000000     0.043950000000     0.393850000000   
C      0.490700000000     0.062350000000     0.106100000000   
C      0.432100000000     0.074850000000     0.224100000000   
C      0.115800000000     0.233400000000     0.163600000000   
C      0.452100000000     0.069200000000     0.126750000000   
C      0.280100000000     0.224800000000     0.011700000000   
C      0.365800000000     0.016600000000     0.336400000000   
C      0.350000000000     0.302750000000     0.344300000000   
C      0.307100000000     0.131800000000     0.308700000000   
C      0.032900000000     0.024200000000     0.324250000000   
C      0.093850000000     0.051550000000     0.279550000000   
C      0.218450000000     0.089300000000     0.181200000000   
C      0.418800000000     0.408300000000     0.349350000000   
C      0.372250000000     0.343900000000     0.333150000000   
C      0.343850000000     0.198450000000     0.220450000000   
C      0.185650000000     0.190200000000     0.237550000000   
C      0.435650000000     0.059800000000     0.262450000000   
C      0.247700000000     0.210000000000     0.076450000000   
C      0.305000000000     0.214850000000     0.473600000000   
C      0.292550000000     0.263000000000     0.229250000000   
C      0.100000000000     0.447250000000     0.155700000000   
C      0.271550000000     0.197250000000     0.039400000000   
C      0.088450000000     0.190000000000     0.118750000000   
C      0.403750000000     0.199850000000     0.349300000000   
C      0.203200000000     0.118600000000     0.215000000000   
C      0.397250000000     0.366200000000     0.358000000000   
C      0.055000000000     0.035150000000     0.026400000000   
C      0.057100000000     0.118200000000     0.191300000000   
C      0.054150000000     0.159500000000     0.207950000000   
C      0.196200000000     0.161400000000     0.206700000000   
C      0.430900000000     0.147750000000     0.383550000000   
C      0.168800000000     0.341700000000     0.150650000000   
C      0.030100000000     0.025200000000     0.488300000000   
C      0.317850000000     0.166750000000     0.285000000000   
C      0.497700000000     0.040000000000     0.423550000000   
C      0.394950000000     0.165950000000     0.402950000000   
C      0.182100000000     0.175150000000     0.275900000000   
C      0.244150000000     0.228300000000     0.342750000000   
C      0.042950000000     0.197000000000     0.181800000000   
C      0.447100000000     0.145400000000     0.247000000000   
C      0.304150000000     0.090500000000     0.292050000000   
C      0.446200000000     0.088600000000     0.293300000000   
C      0.323650000000     0.120650000000     0.228600000000   
C      0.292950000000     0.053000000000     0.318200000000   
C      0.453200000000     0.131400000000     0.285000000000   
C      0.021550000000     0.052750000000     0.460600000000   
C      0.468450000000     0.160700000000     0.318800000000   
C      0.171350000000     0.207550000000     0.308150000000   
C      0.312150000000     0.086400000000     0.252900000000   
C      0.067850000000     0.083250000000     0.215000000000   
C      0.328100000000     0.161150000000     0.245150000000   
C      0.130250000000     0.206050000000     0.106150000000   
C      0.147250000000     0.383800000000     0.142000000000   
C      0.144950000000     0.084050000000     0.097050000000   
C      0.437000000000     0.116650000000     0.216400000000   
C      0.197100000000     0.104600000000     0.253000000000   
C      0.062150000000     0.163600000000     0.247100000000   
C      0.122250000000     0.406100000000     0.166850000000   
C      0.282900000000     0.225800000000     0.175750000000   
C      0.421350000000     0.042450000000     0.191850000000   
C      0.187000000000     0.133350000000     0.283600000000   
C      0.073650000000     0.129350000000     0.271400000000   
C      0.042550000000     0.487000000000     0.270750000000   
C      0.240700000000     0.187650000000     0.393900000000   
N      0.266300000000     0.217350000000     0.374450000000   
N      0.184650000000     0.080050000000     0.151050000000   
N      0.378000000000     0.199250000000     0.381200000000   
N      0.128000000000     0.050750000000     0.118800000000   
N      0.307900000000     0.227900000000     0.208550000000   
N      0.057900000000     0.022100000000     0.291450000000   
N      0.434650000000     0.169950000000     0.348950000000   
N      0.330850000000     0.042500000000     0.345000000000   
N      0.080850000000     0.207500000000     0.155000000000   
N      0.252450000000     0.256400000000     0.174100000000   
N      0.146100000000     0.233500000000     0.135450000000   
N      0.016300000000     0.032650000000     0.125550000000   
N      0.396100000000     0.016500000000     0.364550000000   
N      0.204850000000     0.207550000000     0.339850000000   
N      0.002450000000     0.493600000000     0.325900000000   
N      0.454850000000     0.042450000000     0.160150000000   
O      0.437850000000     0.425950000000     0.378550000000   
O      0.311650000000     0.246350000000     0.451250000000   
O      0.244600000000     0.181900000000     0.102850000000   
O      0.494600000000     0.068100000000     0.397150000000   
O      0.061650000000     0.003650000000     0.048750000000   
O      0.165250000000     0.324200000000     0.184150000000   
O      0.187850000000     0.324050000000     0.121450000000   
O      0.232300000000     0.247800000000     0.079250000000   
O      0.347050000000     0.295050000000     0.381300000000   
O      0.066200000000     0.073300000000     0.034500000000   
O      0.097050000000     0.454950000000     0.118700000000   
O      0.415250000000     0.425800000000     0.315850000000   
O      0.316200000000     0.176700000000     0.465500000000   
O      0.482300000000     0.002200000000     0.420750000000   
O      0.088050000000     0.472850000000     0.181750000000   
O      0.338050000000     0.277150000000     0.318250000000   
Zn     0.294030000000     0.014195000000     0.618755000000   
Zn     0.173130000000     0.487660000000     0.854865000000   
Zn     0.044030000000     0.235805000000     0.881245000000   
Zn     0.423130000000     0.262340000000     0.645135000000   
H      0.251450000000     0.424300000000     0.832450000000   
H      0.080050000000     0.264150000000     0.546500000000   
H      0.271550000000     0.312450000000     0.557450000000   
H      0.131700000000     0.104150000000     0.942500000000   
H      0.190100000000     0.309400000000     0.508400000000   
H      0.316300000000     0.373350000000     0.940600000000   
H      0.233750000000     0.309600000000     0.916200000000   
H      0.383650000000     0.285700000000     0.985400000000   
H      0.463450000000     0.294950000000     0.906300000000   
H      0.098150000000     0.104750000000     0.866900000000   
H      0.463950000000     0.471600000000     0.551800000000   
H      0.116250000000     0.407000000000     0.822650000000   
H      0.213450000000     0.455050000000     0.593700000000   
H      0.050300000000     0.424350000000     0.508600000000   
H      0.301550000000     0.421200000000     0.569250000000   
H      0.068850000000     0.281000000000     0.982100000000   
H      0.171700000000     0.366500000000     0.548350000000   
H      0.321350000000     0.412300000000     0.870250000000   
H      0.021550000000     0.437550000000     0.942550000000   
H      0.051550000000     0.328800000000     0.930750000000   
H      0.318850000000     0.469000000000     0.517900000000   
H      0.181800000000     0.444050000000     0.954100000000   
H      0.196300000000     0.022700000000     0.996600000000   
H      0.301200000000     0.374850000000     0.642150000000   
H      0.448150000000     0.364350000000     0.585650000000   
H      0.446300000000     0.227300000000     0.503400000000   
H      0.141500000000     0.437550000000     0.553200000000   
H      0.355200000000     0.449500000000     0.667550000000   
H      0.180300000000     0.328800000000     0.855150000000   
H      0.133650000000     0.464300000000     0.514600000000   
H      0.381700000000     0.145850000000     0.557500000000   
H      0.071350000000     0.337700000000     0.629750000000   
H      0.255600000000     0.352250000000     0.581650000000   
H      0.349750000000     0.280350000000     0.579000000000   
H      0.099750000000     0.469650000000     0.921000000000   
H      0.440100000000     0.440600000000     0.991600000000   
H      0.330050000000     0.485850000000     0.953500000000   
H      0.005600000000     0.397750000000     0.918350000000   
H      0.495550000000     0.251900000000     0.574300000000   
H      0.300300000000     0.325650000000     0.991400000000   
H      0.469500000000     0.331000000000     0.786100000000   
H      0.431800000000     0.305950000000     0.545900000000   
H      0.348150000000     0.145250000000     0.633100000000   
H      0.381900000000     0.499350000000     0.563250000000   
H      0.108150000000     0.298800000000     0.569250000000   
H      0.479750000000     0.247300000000     0.765500000000   
H      0.131900000000     0.250650000000     0.936750000000   
H      0.391500000000     0.312450000000     0.946800000000   
H      0.257950000000     0.054900000000     0.534450000000   
H      0.483750000000     0.440400000000     0.583800000000   
H      0.430300000000     0.421200000000     0.644850000000   
H      0.051200000000     0.375150000000     0.857850000000   
H      0.198150000000     0.385650000000     0.914350000000   
H      0.105200000000     0.300500000000     0.832450000000   
H      0.007950000000     0.195100000000     0.965550000000   
H      0.066300000000     0.376650000000     0.559400000000   
H      0.421700000000     0.383500000000     0.951650000000   
H      0.219500000000     0.419000000000     0.713900000000   
H      0.366250000000     0.343000000000     0.677350000000   
H      0.229750000000     0.002700000000     0.734500000000   
H      0.245550000000     0.498100000000     0.925700000000   
H      0.001450000000     0.325700000000     0.667550000000   
H      0.213950000000     0.278400000000     0.948200000000   
H      0.358150000000     0.451200000000     0.930750000000   
C      0.127750000000     0.093900000000     0.916850000000   
C      0.426350000000     0.379350000000     0.978600000000   
C      0.069100000000     0.397750000000     0.866450000000   
C      0.064350000000     0.309800000000     0.987550000000   
C      0.421900000000     0.338850000000     0.995150000000   
C      0.046800000000     0.381400000000     0.965000000000   
C      0.161550000000     0.310000000000     0.868750000000   
C      0.207450000000     0.013000000000     0.520750000000   
C      0.078650000000     0.292450000000     0.558150000000   
C      0.346250000000     0.300150000000     0.599300000000   
C      0.411550000000     0.440000000000     0.631250000000   
C      0.195000000000     0.464850000000     0.776400000000   
C      0.228450000000     0.447250000000     0.710600000000   
C      0.317900000000     0.425150000000     0.974100000000   
C      0.102750000000     0.116200000000     0.892000000000   
C      0.081200000000     0.158300000000     0.900650000000   
C      0.119750000000     0.293950000000     0.856150000000   
C      0.219900000000     0.474800000000     0.738300000000   
C      0.047900000000     0.319200000000     0.623250000000   
C      0.302900000000     0.354600000000     0.997000000000   
C      0.195850000000     0.340500000000     0.957950000000   
C      0.352750000000     0.133800000000     0.608000000000   
C      0.400000000000     0.197250000000     0.594300000000   
C      0.467100000000     0.274200000000     0.925750000000   
C      0.457450000000     0.237000000000     0.979250000000   
C      0.469900000000     0.275200000000     0.761700000000   
C      0.437850000000     0.413600000000     0.502900000000   
C      0.478450000000     0.302750000000     0.789400000000   
C      0.303800000000     0.411400000000     0.543300000000   
C      0.241500000000     0.030800000000     0.541600000000   
C      0.296800000000     0.368600000000     0.535000000000   
C      0.105050000000     0.415950000000     0.847050000000   
C      0.171900000000     0.411150000000     0.504850000000   
C      0.406150000000     0.301550000000     0.970450000000   
C      0.252300000000     0.460000000000     0.673550000000   
C      0.442900000000     0.368200000000     0.558700000000   
C      0.491500000000     0.219200000000     0.958400000000   
C      0.053800000000     0.338600000000     0.956700000000   
C      0.314350000000     0.440200000000     0.512450000000   
C      0.217100000000     0.475800000000     0.574250000000   
C      0.255850000000     0.478300000000     0.907250000000   
C      0.005850000000     0.271700000000     0.592750000000   
C      0.187850000000     0.336400000000     0.997100000000   
C      0.134200000000     0.266600000000     0.913600000000   
C      0.150000000000     0.052750000000     0.905700000000   
C      0.319100000000     0.352250000000     0.633550000000   
C      0.259300000000     0.437650000000     0.856100000000   
C      0.445850000000     0.409500000000     0.542050000000   
C      0.002300000000     0.290000000000     0.826450000000   
C      0.328650000000     0.457550000000     0.941850000000   
C      0.207050000000     0.303000000000     0.931800000000   
C      0.067900000000     0.324850000000     0.525900000000   
C      0.297900000000     0.430800000000     0.876750000000   
C      0.445000000000     0.285150000000     0.723600000000   
C      0.182150000000     0.416750000000     0.965000000000   
C      0.432150000000     0.333250000000     0.535000000000   
C      0.369750000000     0.456050000000     0.643850000000   
C      0.384200000000     0.483400000000     0.586400000000   
C      0.156150000000     0.448450000000     0.529550000000   
C      0.192900000000     0.381800000000     0.941300000000   